     Program PWSCF v.6.8 starts on 28Apr2025 at 10:44:48

     R & G space division:  proc/nbgrp/npool/nimage =      56

     Reading input from surface_relax.in
Warning: card &CELL ignored
Warning: card / ignored
Warning: card &FCP ignored
Warning: card / ignored
Warning: card &RISM ignored
Warning: card / ignored

     Current dimensions of program PWSCF are:
     Max number of different atomic species (ntypx) = 10
     Max number of k-points (npk) =  40000
     Max angular momentum in pseudopotentials (lmaxx) =  4
     Message from routine find_sym:
     Not a group! Trying with lower acceptance parameter...
     Message from routine find_sym:
     Still not a group! symmetry disabled

     Using Slab Decomposition

     bravais-lattice index     =            0
     lattice parameter (alat)  =       7.5830  a.u.
     unit-cell volume          =    2097.2343 (a.u.)^3
     number of atoms/cell      =            8
     number of atomic types    =            1
     number of electrons       =       112.00
     number of Kohn-Sham states=           67
     kinetic-energy cutoff     =      60.0000  Ry
     charge density cutoff     =     240.0000  Ry
     scf convergence threshold =      1.0E-06
     mixing beta               =       0.4000
     number of iterations used =            8  plain     mixing
     energy convergence thresh.=      1.0E-04
     force convergence thresh. =      1.0E-03
     Exchange-correlation= PBE
                           (   1   4   3   4   0   0   0)
     nstep                     =           50

     celldm(1)=   7.582957  celldm(2)=   0.000000  celldm(3)=   0.000000
     celldm(4)=   0.000000  celldm(5)=   0.000000  celldm(6)=   0.000000

     crystal axes: (cart. coord. in units of alat)
               a(1) = (   1.000000   0.000000   0.000000 )
               a(2) = (   0.500000   0.866025   0.000000 )
               a(3) = (   0.000000   0.000000   5.553933 )

     reciprocal axes: (cart. coord. in units 2 pi/alat)
               b(1) = (  1.000000 -0.577351  0.000000 )
               b(2) = (  0.000000  1.154701  0.000000 )
               b(3) = (  0.000000  0.000000  0.180053 )

     PseudoPot. # 1 for Ge read from file:
     ./Ge.upf
     MD5 check sum: 087fa14d6c89b52166990835c3b338da
     Pseudo is Norm-conserving + core correction, Zval = 14.0
     Generated using ONCVPSP code by D. R. Hamann
     Using radial grid of 1560 points,  6 beta functions with:
                l(1) =   0
                l(2) =   0
                l(3) =   1
                l(4) =   1
                l(5) =   2
                l(6) =   2

     atomic species   valence    mass     pseudopotential
        Ge            14.00    72.63000     Ge( 1.00)

     No symmetry found

   Cartesian axes

     site n.     atom                  positions (alat units)
         1           Ge  tau(   1) = (   0.2500002   0.1443376   1.8584076  )
         2           Ge  tau(   2) = (   0.2500001   0.1443376   1.2460352  )
         3           Ge  tau(   3) = (   0.7500004   0.4330127   2.6749042  )
         4           Ge  tau(   4) = (   0.7500003   0.4330127   2.0625318  )
         5           Ge  tau(   5) = (   1.2500006   0.7216879   3.4914008  )
         6           Ge  tau(   6) = (   1.2500005   0.7216879   2.8790284  )
         7           Ge  tau(   7) = (   0.2500006   0.1443376   4.3078975  )
         8           Ge  tau(   8) = (   0.2500005   0.1443376   3.6955250  )

     number of k points=    10  Gaussian smearing, width (Ry)=  0.0100
                       cart. coord. in units 2pi/alat
        k(    1) = (   0.0000000   0.0000000   0.0000000), wk =   0.1250000
        k(    2) = (   0.0000000   0.2886751   0.0000000), wk =   0.2500000
        k(    3) = (   0.0000000  -0.5773503   0.0000000), wk =   0.1250000
        k(    4) = (   0.2500000  -0.7216879   0.0000000), wk =   0.2500000
        k(    5) = (  -0.2500000  -0.1443375   0.0000000), wk =   0.2500000
        k(    6) = (   0.2500000  -0.1443376   0.0000000), wk =   0.2500000
        k(    7) = (   0.5000000   0.2886750   0.0000000), wk =   0.1250000
        k(    8) = (  -0.5000000   0.2886753   0.0000000), wk =   0.1250000
        k(    9) = (   0.5000000   0.5773501   0.0000000), wk =   0.2500000
        k(   10) = (  -0.7500000   0.1443378   0.0000000), wk =   0.2500000

     Initial potential from superposition of free atoms

     starting charge  111.99342, renormalised to  112.00000

     negative rho (up, down):  5.023E-06 0.000E+00
     Starting wfcs are   72 randomized atomic wfcs

     Self-consistent Calculation

     iteration #  1     ecut=    60.00 Ry     beta= 0.40
     Davidson diagonalization with overlap
     ethr =  1.00E-02,  avg # of iterations =  2.9

     Threshold (ethr) on eigenvalues was too large:
     Diagonalizing with lowered threshold

     Davidson diagonalization with overlap
     ethr =  3.78E-04,  avg # of iterations =  4.3

     negative rho (up, down):  1.373E-06 0.000E+00

     total energy              =   -1428.43825388 Ry
     estimated scf accuracy    <       0.46250382 Ry

[...]

     End of self-consistent calculation

          k = 0.0000 0.0000 0.0000 ( 16519 PWs)   bands (ev):

   -21.4105 -21.4105 -21.4091 -21.4091 -21.2812 -21.2812 -21.2772 -21.2765
   -21.2765 -21.2754 -21.2731 -21.2731 -21.2428 -21.2334 -21.2118 -21.2118
   -21.1745 -21.1745 -21.1610 -21.1610 -21.1174 -21.1174 -21.1161 -21.1161
   -21.0185 -21.0185 -21.0177 -21.0079 -20.9847 -20.9847 -20.8521 -20.8521
   -20.8517 -20.8517 -20.8413 -20.8376 -20.8101 -20.8101 -20.8074 -20.8074
    -8.7939  -8.2255  -7.4885  -5.0242  -4.7533  -2.4990  -0.6312   1.2892
     2.4703   2.4703   2.9018   2.9018   3.1215   3.3957   3.3957   3.9907
     4.3597   4.3870   5.8103   5.8104   6.0122   6.0122   6.3186   7.0440
     7.0605   7.0605   7.5977

[...]

          k =-0.2500-0.1443 0.0000 ( 16480 PWs)   bands (ev):

[...]

     the Fermi energy is     3.2451 ev

!    total energy              =   -1428.61025527 Ry
     estimated scf accuracy    <       0.00000071 Ry
     smearing contrib. (-TS)   =      -0.00041734 Ry
     internal energy E=F+TS    =   -1428.60983793 Ry

     The total energy is F=E-TS. E is the sum of the following terms:
     one-electron contribution =   -4283.85914422 Ry
     hartree contribution      =    2194.12215235 Ry
     xc contribution           =    -348.52998716 Ry
     ewald contribution        =    1009.65714110 Ry

     convergence has been achieved in  10 iterations

     Forces acting on atoms (cartesian axes, Ry/au):

     atom    1 type  1   force =     0.00000048    0.00000059   -0.01048222
     atom    2 type  1   force =    -0.00000119    0.00000246   -0.01351897
     atom    3 type  1   force =     0.00000121   -0.00000074   -0.00767587
     atom    4 type  1   force =    -0.00000287    0.00000245    0.01388940
     atom    5 type  1   force =     0.00000051   -0.00000328   -0.01338283
     atom    6 type  1   force =    -0.00000081   -0.00000237    0.00741258
     atom    7 type  1   force =     0.00000228    0.00000064    0.01346428
     atom    8 type  1   force =     0.00000039    0.00000026    0.01029363

     Total force =     0.032646     Total SCF correction =     0.004700
     SCF correction compared to forces is large: reduce conv_thr to get better values

     BFGS Geometry Optimization
     Energy error            =      0.0E+00 Ry
     Gradient error          =      1.4E-02 Ry/Bohr

     number of scf cycles    =   1
     number of bfgs steps    =   0

     energy             new  =   -1428.6102552705 Ry

     new trust radius        =       0.0138894016 bohr
     new conv_thr            =       0.0000010000 Ry

ATOMIC_POSITIONS (angstrom)
Ge            1.0031828493        0.5791877490        7.4517370756
Ge            1.0031815640        0.5791886816        4.9928460686
Ge            3.0095480265        1.7375618704       10.7296008376
Ge            3.0095454591        1.7375634981        8.2837286582
Ge            5.0159124455        2.8959353443       14.0029595472
Ge            5.0159113413        2.8959357676       11.5566799771
Ge            1.0031854263        0.5791880048       17.2935451272
Ge            1.0031840201        0.5791877488       14.8345832643

     Writing output data file ./out/ge.save/
     NEW-OLD atomic charge density approx. for the potential

[...]

     Total force =     0.025553     Total SCF correction =     0.001311
     Energy error            =      9.5E-04 Ry
     Gradient error          =      1.3E-02 Ry/Bohr

[...]

     energy             old  =   -1428.6102552705 Ry
     energy             new  =   -1428.6112020609 Ry

     CASE: energy            _new < energy            _old

[...]

     negative rho (up, down):  6.916E-08 0.000E+00

[...]

     Total force =     0.009786     Total SCF correction =     0.000159
     Energy error            =      2.5E-04 Ry
     Gradient error          =      6.1E-03 Ry/Bohr

[...]

     Total force =     0.004175     Total SCF correction =     0.000860
     SCF correction compared to forces is large: reduce conv_thr to get better values
     Energy error            =      1.1E-04 Ry
     Gradient error          =      2.3E-03 Ry/Bohr

     number of scf cycles    =  13
     number of bfgs steps    =  12

     energy             old  =   -1428.6173113970 Ry
     energy             new  =   -1428.6174167041 Ry

     CASE: energy            _new < energy            _old

     new trust radius        =       0.0046820950 bohr
     new conv_thr            =       0.0000000105 Ry

ATOMIC_POSITIONS (angstrom)
Ge            1.0031757498        0.5791934425        7.2966867017
Ge            1.0031761846        0.5791984898        4.8039099392
Ge            3.0095485385        1.7375567189       10.7018428737
Ge            3.0095411258        1.7375670035        8.2183062192
Ge            5.0159148882        2.8959315196       14.0679589104
Ge            5.0159129978        2.8959315091       11.5846201324
Ge            1.0031951391        0.5791889735       17.4825867466
Ge            1.0031865084        0.5791810078       14.9897690326

     Writing output data file ./out/ge.save/
     NEW-OLD atomic charge density approx. for the potential

     Self-consistent Calculation

[...]

     Threshold (ethr) on eigenvalues was too large:
     Diagonalizing with lowered threshold

     Davidson diagonalization with overlap
     ethr =  5.70E-09,  avg # of iterations =  4.0

[...]

     total energy              =   -1428.61743797 Ry
     estimated scf accuracy    <       0.00000048 Ry

     iteration #  7     ecut=    60.00 Ry     beta= 0.40
     Davidson diagonalization with overlap
     ethr =  1.04E-10,  avg # of iterations =  1.4

     End of self-consistent calculation

[...]

          k = 0.5000 0.5774 0.0000 ( 16437 PWs)   bands (ev):

[...]

          k =-0.7500 0.1443 0.0000 ( 16437 PWs)   bands (ev):

   -21.4692 -21.4677 -21.4653 -21.4640 -21.3425 -21.3410 -21.3406 -21.3386
   -21.3243 -21.3219 -21.1615 -21.1420 -21.1286 -21.0528 -21.0422 -21.0402
   -21.0295 -21.0199 -21.0004 -20.9982 -20.9817 -20.9646 -20.9515 -20.9466
   -20.9412 -20.9391 -20.9308 -20.8785 -20.8670 -20.8393 -20.7610 -20.7597
   -20.7338 -20.7331 -20.7153 -20.7141 -20.6996 -20.6986 -20.6788 -20.6785
    -6.6622  -6.1899  -5.6252  -4.8488  -4.0918  -3.4046  -2.7801  -2.5581
     0.1746   0.2246   0.3353   0.6273   1.3227   2.1782   2.3852   2.8728
     2.9136   3.8751   4.0733   6.0544   6.1025   6.4945   7.3355   7.9614
     8.2336   8.3915   8.8184

     the Fermi energy is     3.3826 ev

!    total energy              =   -1428.61743799 Ry
     estimated scf accuracy    <          3.4E-09 Ry
     smearing contrib. (-TS)   =      -0.00054025 Ry
     internal energy E=F+TS    =   -1428.61689774 Ry

     The total energy is F=E-TS. E is the sum of the following terms:
     one-electron contribution =   -3953.44789961 Ry
     hartree contribution      =    2029.26564716 Ry
     xc contribution           =    -348.40884365 Ry
     ewald contribution        =     843.97419835 Ry

     convergence has been achieved in   7 iterations

     Forces acting on atoms (cartesian axes, Ry/au):

     atom    1 type  1   force =     0.00000035   -0.00000026    0.00022857
     atom    2 type  1   force =     0.00000003   -0.00000014   -0.00049926
     atom    3 type  1   force =     0.00000002    0.00000020   -0.00023753
     atom    4 type  1   force =    -0.00000015    0.00000007    0.00052112
     atom    5 type  1   force =     0.00000000   -0.00000018   -0.00043084
     atom    6 type  1   force =    -0.00000003    0.00000003    0.00021029
     atom    7 type  1   force =    -0.00000014   -0.00000014    0.00044555
     atom    8 type  1   force =    -0.00000008    0.00000043   -0.00023790

     Total force =     0.001056     Total SCF correction =     0.000404
     SCF correction compared to forces is large: reduce conv_thr to get better values
     Energy error            =      2.1E-05 Ry
     Gradient error          =      5.2E-04 Ry/Bohr

     bfgs converged in  14 scf cycles and  13 bfgs steps
     (criteria: energy <  1.0E-04 Ry, force <  1.0E-03 Ry/Bohr)

     End of BFGS Geometry Optimization

     Final energy             =   -1428.6174379939 Ry

     File ./out/ge.bfgs deleted, as requested
Begin final coordinates

ATOMIC_POSITIONS (angstrom)
Ge            1.0031757498        0.5791934425        7.2966867017
Ge            1.0031761846        0.5791984898        4.8039099392
Ge            3.0095485385        1.7375567189       10.7018428737
Ge            3.0095411258        1.7375670035        8.2183062192
Ge            5.0159148882        2.8959315196       14.0679589104
Ge            5.0159129978        2.8959315091       11.5846201324
Ge            1.0031951391        0.5791889735       17.4825867466
Ge            1.0031865084        0.5791810078       14.9897690326
End final coordinates

     Writing output data file ./out/ge.save/

     General routines

     Parallel routines

   This run was terminated on:  10:46:59  28Apr2025

   JOB DONE.