     Program PWSCF v.6.8 starts on 28Apr2025 at 15:27: 1

     R & G space division:  proc/nbgrp/npool/nimage =      56

     Reading input from surface_relax.in
Warning: card &CELL ignored
Warning: card / ignored
Warning: card &FCP ignored
Warning: card / ignored
Warning: card &RISM ignored
Warning: card / ignored

     Current dimensions of program PWSCF are:
     Max number of different atomic species (ntypx) = 10
     Max number of k-points (npk) =  40000
     Max angular momentum in pseudopotentials (lmaxx) =  4

     Using Slab Decomposition

     bravais-lattice index     =            0
     lattice parameter (alat)  =      10.7239  a.u.
     unit-cell volume          =    4331.4669 (a.u.)^3
     number of atoms/cell      =           16
     number of atomic types    =            1
     number of electrons       =       224.00
     number of Kohn-Sham states=          134
     kinetic-energy cutoff     =      60.0000  Ry
     charge density cutoff     =     240.0000  Ry
     scf convergence threshold =      1.0E-06
     mixing beta               =       0.4000
     number of iterations used =            8  plain     mixing
     energy convergence thresh.=      1.0E-04
     force convergence thresh. =      1.0E-03
     Exchange-correlation= PBE
                           (   1   4   3   4   0   0   0)
     nstep                     =           50

     celldm(1)=  10.723920  celldm(2)=   0.000000  celldm(3)=   0.000000
     celldm(4)=   0.000000  celldm(5)=   0.000000  celldm(6)=   0.000000

     crystal axes: (cart. coord. in units of alat)
               a(1) = (   1.000000   0.000000   0.000000 )
               a(2) = (   0.000000   1.000000   0.000000 )
               a(3) = (   0.000000   0.000000   3.512160 )

     reciprocal axes: (cart. coord. in units 2 pi/alat)
               b(1) = (  1.000000  0.000000  0.000000 )
               b(2) = (  0.000000  1.000000  0.000000 )
               b(3) = (  0.000000  0.000000  0.284725 )

     PseudoPot. # 1 for Ge read from file:
     ./Ge.upf
     MD5 check sum: 087fa14d6c89b52166990835c3b338da
     Pseudo is Norm-conserving + core correction, Zval = 14.0
     Generated using ONCVPSP code by D. R. Hamann
     Using radial grid of 1560 points,  6 beta functions with:
                l(1) =   0
                l(2) =   0
                l(3) =   1
                l(4) =   1
                l(5) =   2
                l(6) =   2

     atomic species   valence    mass     pseudopotential
        Ge            14.00    72.63000     Ge( 1.00)

     No symmetry found

   Cartesian axes

     site n.     atom                  positions (alat units)
         1           Ge  tau(   1) = (   0.0028304   0.5014256   0.8836368  )
         2           Ge  tau(   2) = (   0.2520822   0.7514242   1.1298628  )
         3           Ge  tau(   3) = (   0.5012091  -0.0001767   0.8792784  )
         4           Ge  tau(   4) = (   0.7524671   0.2509600   1.1340327  )
         5           Ge  tau(   5) = (  -0.0013522  -0.0017086   1.3813027  )
         6           Ge  tau(   6) = (   0.2479694   0.2499736   1.6317137  )
         7           Ge  tau(   7) = (   0.5021886   0.5016983   1.3801647  )
         8           Ge  tau(   8) = (   0.7505917   0.7523149   1.6299309  )
         9           Ge  tau(   9) = (   0.0029568   0.5022917   1.8844328  )
        10           Ge  tau(  10) = (   0.2489013   0.7474726   2.1285243  )
        11           Ge  tau(  11) = (   0.4978747   0.0003024   1.8806389  )
        12           Ge  tau(  12) = (   0.7530601   0.2499646   2.1316361  )
        13           Ge  tau(  13) = (  -0.0016176  -0.0023988   2.3822156  )
        14           Ge  tau(  14) = (   0.2525538   0.2529885   2.6280540  )
        15           Ge  tau(  15) = (   0.4982706   0.4990174   2.3790972  )
        16           Ge  tau(  16) = (   0.7516477   0.7492291   2.6275922  )

     number of k points=     4  Gaussian smearing, width (Ry)=  0.0100
                       cart. coord. in units 2pi/alat
        k(    1) = (   0.0000000   0.0000000   0.0000000), wk =   0.5000000
        k(    2) = (   0.0000000  -0.5000000   0.0000000), wk =   0.5000000
        k(    3) = (  -0.5000000  -0.5000000   0.0000000), wk =   0.5000000
        k(    4) = (  -0.5000000   0.0000000   0.0000000), wk =   0.5000000

     Initial potential from superposition of free atoms

     starting charge  223.98683, renormalised to  224.00000

     negative rho (up, down):  1.598E-05 0.000E+00
     Starting wfcs are  144 randomized atomic wfcs

     Self-consistent Calculation

     iteration #  1     ecut=    60.00 Ry     beta= 0.40
     Davidson diagonalization with overlap
     ethr =  1.00E-02,  avg # of iterations =  4.0

     Threshold (ethr) on eigenvalues was too large:
     Diagonalizing with lowered threshold

     Davidson diagonalization with overlap
     ethr =  2.06E-04,  avg # of iterations = 10.0

     negative rho (up, down):  5.520E-06 0.000E+00

     total energy              =   -2857.18849129 Ry
     estimated scf accuracy    <       0.50797396 Ry

[...]

     End of self-consistent calculation

          k = 0.0000 0.0000 0.0000 ( 33997 PWs)   bands (ev):

   -21.7009 -21.6806 -21.6720 -21.6645 -21.6559 -21.6452 -21.6259 -21.6213
   -21.6182 -21.6064 -21.6007 -21.5955 -21.5895 -21.5877 -21.5794 -21.5664
   -21.5603 -21.5570 -21.5561 -21.5484 -21.5329 -21.4970 -21.4939 -21.4817
   -21.4795 -21.4599 -21.4571 -21.4505 -21.4503 -21.4464 -21.4171 -21.4157
   -21.4082 -21.4073 -21.3918 -21.3897 -21.3894 -21.3756 -21.3729 -21.3681
   -21.3616 -21.3550 -21.3523 -21.3510 -21.3485 -21.3331 -21.3268 -21.3260
   -21.3214 -21.3197 -21.3127 -21.3110 -21.3089 -21.3071 -21.2924 -21.2845
   -21.2427 -21.2391 -21.2286 -21.2246 -21.1731 -21.1621 -21.1490 -21.1440
   -21.1419 -21.1382 -21.1331 -21.1308 -21.1092 -21.1015 -21.0968 -21.0894
   -21.0878 -21.0804 -21.0740 -21.0721 -21.0280 -21.0249 -21.0198 -21.0175
    -9.1282  -8.4179  -7.3620  -6.0321  -5.5157  -5.4830  -5.4751  -5.4616
    -5.2505  -5.2257  -4.5173  -4.4948  -4.3242  -2.4150  -0.3837  -0.2205
    -0.2148  -0.1792  -0.1744   0.2965   0.2993   0.5303   0.5791   1.2305
     1.3162   1.6564   2.1520   2.1631   2.1660   2.3990   2.5527   2.5604
     2.9974   3.5576   4.1958   4.2170   4.7108   4.7914   4.9006   4.9071
     4.9515   5.2599   5.4032   5.5804   5.6006   5.6357   5.7963   6.5860
     6.6102   6.6577   7.5637   7.7832   8.0300   8.0445

[...]

          k =-0.5000-0.5000 0.0000 ( 34004 PWs)   bands (ev):

[...]

     the Fermi energy is     2.9111 ev

!    total energy              =   -2857.28519010 Ry
     estimated scf accuracy    <       0.00000079 Ry
     smearing contrib. (-TS)   =      -0.00258685 Ry
     internal energy E=F+TS    =   -2857.28260325 Ry

     The total energy is F=E-TS. E is the sum of the following terms:
     one-electron contribution =   -7947.26237360 Ry
     hartree contribution      =    4075.90524943 Ry
     xc contribution           =    -697.41894507 Ry
     ewald contribution        =    1711.49346599 Ry

     convergence has been achieved in  10 iterations

     Forces acting on atoms (cartesian axes, Ry/au):

     atom    1 type  1   force =    -0.00356098   -0.00320756   -0.02357096
     atom    2 type  1   force =    -0.00025549    0.00183889    0.01435346
     atom    3 type  1   force =     0.00488770    0.00425780   -0.01993565
     atom    4 type  1   force =    -0.00292067   -0.00171717    0.00267677
     atom    5 type  1   force =     0.00686829    0.00301354   -0.00372689
     atom    6 type  1   force =     0.00325469    0.00350474   -0.00081717
     atom    7 type  1   force =    -0.00490751   -0.00364612    0.00192057
     atom    8 type  1   force =    -0.00129608   -0.00613277    0.01155770
     atom    9 type  1   force =    -0.01163431   -0.00514977   -0.01548938
     atom   10 type  1   force =     0.00584729    0.01058006    0.01103730
     atom   11 type  1   force =     0.00501439    0.00221012   -0.00169332
     atom   12 type  1   force =    -0.00518405   -0.00123090   -0.00028955
     atom   13 type  1   force =     0.00925221    0.00384249   -0.01361747
     atom   14 type  1   force =    -0.00759721   -0.00651203    0.02462284
     atom   15 type  1   force =     0.00626805    0.00417306   -0.01313928
     atom   16 type  1   force =    -0.00403631   -0.00582438    0.02611103

     Total force =     0.065103     Total SCF correction =     0.003800

     BFGS Geometry Optimization
     Energy error            =      0.0E+00 Ry
     Gradient error          =      2.6E-02 Ry/Bohr

     number of scf cycles    =   1
     number of bfgs steps    =   0

     energy             new  =   -2857.2851901041 Ry

     new trust radius        =       0.0270555219 bohr
     new conv_thr            =       0.0000010000 Ry

ATOMIC_POSITIONS (angstrom)
Ge            0.0141778801        2.8438197886        5.0020366464
Ge            1.4303943048        4.2651961583        6.4194020576
Ge            2.8468749682        0.0012505106        4.9792272084
Ge            4.2685954213        1.4232529250        6.4368869204
Ge           -0.0040390084       -0.0081012037        7.8367190959
Ge            1.4089124334        1.4204184052        9.2593047204
Ge            2.8472503212        2.8451353890        7.8332497480
Ge            4.2588128145        4.2660322287        9.2557362240
Ge            0.0106228962        2.8477068852       10.6856847492
Ge            1.4155727298        4.2473965648       12.0849056162
Ge            2.8280199887        0.0028857274       10.6714552968
Ge            4.2707628552        1.4178614987       12.0965707735
Ge           -0.0042837368       -0.0115794133       13.5115200693
Ge            1.4291856910        1.4322268005       14.9268531364
Ge            2.8309299149        2.8340590159       13.4940769572
Ge            4.2633554070        4.2486837318       14.9250198309

     Writing output data file ./out/ge.save/
     NEW-OLD atomic charge density approx. for the potential

[...]

     Total force =     0.047969     Total SCF correction =     0.005300
     SCF correction compared to forces is large: reduce conv_thr to get better values
     Energy error            =      3.7E-03 Ry
     Gradient error          =      2.1E-02 Ry/Bohr

[...]

     energy             old  =   -2857.2851901041 Ry
     energy             new  =   -2857.2888803752 Ry

     CASE: energy            _new < energy            _old

[...]

     Total force =     0.034423     Total SCF correction =     0.002293
     Energy error            =      2.7E-03 Ry
     Gradient error          =      1.7E-02 Ry/Bohr

[...]

     Total force =     0.010212     Total SCF correction =     0.001679
     SCF correction compared to forces is large: reduce conv_thr to get better values
     Energy error            =      5.5E-04 Ry
     Gradient error          =      3.9E-03 Ry/Bohr

[...]

     WARNING: bfgs curvature condition failed, Theta= 0.955
     new trust radius        =       0.0378162906 bohr
     new conv_thr            =       0.0000000197 Ry

[...]

     iteration #  1     ecut=    60.00 Ry     beta= 0.40
     Davidson diagonalization with overlap
     c_bands:  1 eigenvalues not converged
     ethr =  1.00E-06,  avg # of iterations = 12.5

[...]

     WARNING: bfgs curvature condition failed, Theta= 0.978
     new trust radius        =       0.0867437057 bohr
     new conv_thr            =       0.0000002888 Ry

[...]

     iteration #  2     ecut=    60.00 Ry     beta= 0.40
     Davidson diagonalization with overlap
     c_bands:  1 eigenvalues not converged
     ethr =  8.13E-07,  avg # of iterations = 16.0

[...]

     negative rho (up, down):  1.223E-08 0.000E+00

[...]

     new trust radius        =       0.0121152441 bohr
     new conv_thr            =       0.0000000164 Ry

[...]

     Self-consistent Calculation

[...]

     Threshold (ethr) on eigenvalues was too large:
     Diagonalizing with lowered threshold

     Davidson diagonalization with overlap
     ethr =  1.16E-08,  avg # of iterations =  4.2

[...]

     total energy              =   -2857.43340522 Ry
     estimated scf accuracy    <       0.00000006 Ry

     iteration #  8     ecut=    60.00 Ry     beta= 0.40
     Davidson diagonalization with overlap
     ethr =  2.55E-11,  avg # of iterations =  2.2

     End of self-consistent calculation

[...]

          k = 0.0000-0.5000 0.0000 ( 33994 PWs)   bands (ev):

[...]

          k =-0.5000 0.0000 0.0000 ( 33994 PWs)   bands (ev):

   -21.5302 -21.5121 -21.4935 -21.4745 -21.4539 -21.4352 -21.4224 -21.4040
   -21.3907 -21.3732 -21.3160 -21.3125 -21.3060 -21.3012 -21.2967 -21.2956
   -21.2923 -21.2875 -21.2765 -21.2720 -21.2590 -21.2575 -21.2313 -21.2311
   -21.2232 -21.2227 -21.2175 -21.2135 -21.2119 -21.2054 -21.2008 -21.1947
   -21.1901 -21.1828 -21.1799 -21.1705 -21.1691 -21.1674 -21.1647 -21.1621
   -21.1595 -21.1512 -21.1438 -21.1400 -21.1363 -21.1321 -21.1306 -21.1253
   -21.1176 -21.1157 -21.1093 -21.1042 -21.0977 -21.0941 -21.0882 -21.0830
   -21.0754 -21.0634 -21.0606 -21.0544 -21.0504 -21.0345 -21.0243 -21.0158
   -21.0005 -20.9952 -20.9921 -20.9907 -20.9761 -20.9704 -20.9668 -20.9661
   -20.9581 -20.9529 -20.9498 -20.9488 -20.9408 -20.9325 -20.9250 -20.9243
    -7.7623  -7.7142  -7.3281  -7.1228  -6.4494  -6.2203  -5.4361  -5.1156
    -4.4981  -4.0656  -3.6489  -3.1091  -2.6294  -2.0646  -1.5255  -1.1920
    -0.3186  -0.1995  -0.0484   0.0220   0.3937   0.7431   0.7533   1.0658
     1.5344   1.6549   1.6874   1.7980   2.0589   2.3340   2.4507   2.7521
     4.0148   4.1188   4.7362   5.0557   5.1518   5.4831   5.7094   5.9174
     6.0472   6.3599   6.6111   6.6797   7.0993   7.1229   7.5846   7.8249
     7.8809   8.1479   8.2479   8.2609   8.2928   8.4846

     the Fermi energy is     3.2940 ev

!    total energy              =   -2857.43340523 Ry
     estimated scf accuracy    <          8.8E-09 Ry
     smearing contrib. (-TS)   =      -0.00438180 Ry
     internal energy E=F+TS    =   -2857.42902343 Ry

     The total energy is F=E-TS. E is the sum of the following terms:
     one-electron contribution =   -7580.66019055 Ry
     hartree contribution      =    3894.19265884 Ry
     xc contribution           =    -697.27689909 Ry
     ewald contribution        =    1526.31540738 Ry

     convergence has been achieved in   8 iterations

     Forces acting on atoms (cartesian axes, Ry/au):

     atom    1 type  1   force =    -0.00003389    0.00103457    0.00215696
     atom    2 type  1   force =     0.00005236   -0.00150473   -0.00059578
     atom    3 type  1   force =     0.00142984   -0.00200719   -0.00004510
     atom    4 type  1   force =     0.00137719   -0.00068154   -0.00008668
     atom    5 type  1   force =     0.00127835    0.00045293   -0.00006711
     atom    6 type  1   force =    -0.00012466    0.00005913   -0.00047740
     atom    7 type  1   force =    -0.00016254   -0.00087635    0.00015336
     atom    8 type  1   force =     0.00016334   -0.00012159   -0.00247038
     atom    9 type  1   force =    -0.00166093    0.00005895    0.00037553
     atom   10 type  1   force =    -0.00044929    0.00136386   -0.00078950
     atom   11 type  1   force =     0.00060272   -0.00092555    0.00147319
     atom   12 type  1   force =     0.00020416    0.00080831   -0.00081616
     atom   13 type  1   force =    -0.00120484   -0.00043418    0.00014682
     atom   14 type  1   force =     0.00063752    0.00164470    0.00150570
     atom   15 type  1   force =    -0.00242271    0.00028516    0.00001049
     atom   16 type  1   force =     0.00031337    0.00084353   -0.00047394

     Total force =     0.007086     Total SCF correction =     0.000455
     Energy error            =      1.3E-04 Ry
     Gradient error          =      2.5E-03 Ry/Bohr

     number of scf cycles    =  50
     number of bfgs steps    =  49

     energy             old  =   -2857.4332735404 Ry
     energy             new  =   -2857.4334052258 Ry

     CASE: energy            _new < energy            _old

     new trust radius        =       0.0145680211 bohr

     The maximum number of steps has been reached.

     End of BFGS Geometry Optimization

ATOMIC_POSITIONS (angstrom)
Ge           -0.4080710148        3.2313206738        4.5362238271
Ge            1.3070966746        4.2411855040        6.2424379968
Ge            3.5221581099       -0.6986377663        5.3891239955
Ge            4.2636023841        1.5183971767        6.2434587421
Ge            0.0270729830        0.0611501384        7.7737167910
Ge            1.3916566778        1.4479331533        9.3000333590
Ge            2.7820661265        2.8154891198        7.7724704330
Ge            4.2827454174        4.2341691808        9.1866577142
Ge           -0.0137012985        2.8547487704       10.7725839449
Ge            1.4893189306        4.2900333316       12.1637880795
Ge            2.8572977265       -0.0214825732       10.6171807970
Ge            4.2200874254        1.3448877767       12.1550484034
Ge            0.0005168136       -0.0870332091       13.6766498557
Ge            0.7451634594        2.1249497339       14.5200688551
Ge            2.9657257524        2.8575198952       13.6870447159
Ge            4.6824087129        3.8616141065       15.3821615402

     Writing output data file ./out/ge.save/
     NEW-OLD atomic charge density approx. for the potential

     Writing output data file ./out/ge.save/

     General routines

     Parallel routines

   This run was terminated on:  15:39:32  28Apr2025

   JOB DONE.