     Program PWSCF v.6.8 starts on 28Apr2025 at 22:46:41

     R & G space division:  proc/nbgrp/npool/nimage =      56

     Reading input from surface_relax.in
Warning: card &CELL ignored
Warning: card / ignored
Warning: card &FCP ignored
Warning: card / ignored
Warning: card &RISM ignored
Warning: card / ignored

     Current dimensions of program PWSCF are:
     Max number of different atomic species (ntypx) = 10
     Max number of k-points (npk) =  40000
     Max angular momentum in pseudopotentials (lmaxx) =  4

     Using Slab Decomposition

     bravais-lattice index     =            0
     lattice parameter (alat)  =       7.7101  a.u.
     unit-cell volume          =    2257.6690 (a.u.)^3
     number of atoms/cell      =            8
     number of atomic types    =            1
     number of electrons       =       112.00
     number of Kohn-Sham states=           67
     kinetic-energy cutoff     =      60.0000  Ry
     charge density cutoff     =     240.0000  Ry
     scf convergence threshold =      1.0E-06
     mixing beta               =       0.4000
     number of iterations used =            8  plain     mixing
     energy convergence thresh.=      1.0E-04
     force convergence thresh. =      1.0E-03
     Exchange-correlation= PBE
                           (   1   4   3   4   0   0   0)
     nstep                     =          100

     celldm(1)=   7.710094  celldm(2)=   0.000000  celldm(3)=   0.000000
     celldm(4)=   0.000000  celldm(5)=   0.000000  celldm(6)=   0.000000

     crystal axes: (cart. coord. in units of alat)
               a(1) = (   1.000000   0.000000   0.000000 )
               a(2) = (   0.000000   1.000000   0.000000 )
               a(3) = (   0.000000   0.000000   4.925850 )

     reciprocal axes: (cart. coord. in units 2 pi/alat)
               b(1) = (  1.000000  0.000000  0.000000 )
               b(2) = (  0.000000  1.000000  0.000000 )
               b(3) = (  0.000000  0.000000  0.203011 )

     PseudoPot. # 1 for Ge read from file:
     ./Ge.upf
     MD5 check sum: 087fa14d6c89b52166990835c3b338da
     Pseudo is Norm-conserving + core correction, Zval = 14.0
     Generated using ONCVPSP code by D. R. Hamann
     Using radial grid of 1560 points,  6 beta functions with:
                l(1) =   0
                l(2) =   0
                l(3) =   1
                l(4) =   1
                l(5) =   2
                l(6) =   2

     atomic species   valence    mass     pseudopotential
        Ge            14.00    72.63000     Ge( 1.00)

     No symmetry found

   Cartesian axes

     site n.     atom                  positions (alat units)
         1           Ge  tau(   1) = (   0.0027072   0.0043779   1.2222593  )
         2           Ge  tau(   2) = (   0.4951978  -0.0046035   1.5766236  )
         3           Ge  tau(   3) = (   0.4951223   0.4966025   1.9329339  )
         4           Ge  tau(   4) = (  -0.0041482   0.5041815   2.2895266  )
         5           Ge  tau(   5) = (   0.0034257   0.0043246   2.6383641  )
         6           Ge  tau(   6) = (   0.5020667  -0.0026282   2.9964966  )
         7           Ge  tau(   7) = (   0.5012759   0.5041407   3.3472343  )
         8           Ge  tau(   8) = (   0.0016097   0.4959221   3.7015793  )

     number of k points=    10  Gaussian smearing, width (Ry)=  0.0100
                       cart. coord. in units 2pi/alat
        k(    1) = (   0.0000000   0.0000000   0.0000000), wk =   0.1250000
        k(    2) = (   0.0000000   0.2500000   0.0000000), wk =   0.2500000
        k(    3) = (   0.0000000  -0.5000000   0.0000000), wk =   0.1250000
        k(    4) = (   0.2500000   0.2500000   0.0000000), wk =   0.2500000
        k(    5) = (   0.2500000  -0.5000000   0.0000000), wk =   0.2500000
        k(    6) = (  -0.5000000  -0.5000000   0.0000000), wk =   0.1250000
        k(    7) = (   0.2500000   0.0000000   0.0000000), wk =   0.2500000
        k(    8) = (  -0.5000000   0.0000000   0.0000000), wk =   0.1250000
        k(    9) = (  -0.2500000   0.2500000   0.0000000), wk =   0.2500000
        k(   10) = (  -0.5000000   0.2500000   0.0000000), wk =   0.2500000

     Initial potential from superposition of free atoms

     starting charge  111.99342, renormalised to  112.00000

     negative rho (up, down):  5.574E-06 0.000E+00
     Starting wfcs are   72 randomized atomic wfcs

     Self-consistent Calculation

     iteration #  1     ecut=    60.00 Ry     beta= 0.40
     Davidson diagonalization with overlap
     ethr =  1.00E-02,  avg # of iterations =  3.3

     Threshold (ethr) on eigenvalues was too large:
     Diagonalizing with lowered threshold

     Davidson diagonalization with overlap
     ethr =  2.31E-04,  avg # of iterations =  5.5

     negative rho (up, down):  1.646E-06 0.000E+00

     total energy              =   -1428.57402874 Ry
     estimated scf accuracy    <       0.28350299 Ry

[...]

     negative rho (up, down):  3.310E-08 0.000E+00

[...]

     End of self-consistent calculation

          k = 0.0000 0.0000 0.0000 ( 17785 PWs)   bands (ev):

   -21.8624 -21.8538 -21.8388 -21.8164 -21.8146 -21.7943 -21.7793 -21.7784
   -21.7759 -21.7656 -21.7317 -21.7080 -21.6988 -21.6897 -21.6801 -21.6719
   -21.6420 -21.6322 -21.6288 -21.6243 -21.6232 -21.6201 -21.6115 -21.6100
   -21.6095 -21.5999 -21.5879 -21.5768 -21.5417 -21.5304 -21.4240 -21.4113
   -21.4069 -21.3954 -21.3764 -21.3725 -21.3606 -21.3549 -21.3355 -21.3197
    -9.0321  -8.3522  -7.3962  -6.0866  -4.5371  -2.6949  -0.7815   0.4499
     0.4525   1.1004   1.1505   1.1783   1.9482   2.1409   2.7806   3.2562
     3.9415   4.0180   4.3257   4.5029   4.6493   4.9477   5.0197   5.2165
     5.3672   6.2527   7.1828

[...]

          k =-0.5000-0.5000 0.0000 ( 17620 PWs)   bands (ev):

[...]

     the Fermi energy is     2.6196 ev

!    total energy              =   -1428.64433663 Ry
     estimated scf accuracy    <       0.00000055 Ry
     smearing contrib. (-TS)   =      -0.00306784 Ry
     internal energy E=F+TS    =   -1428.64126879 Ry

     The total energy is F=E-TS. E is the sum of the following terms:
     one-electron contribution =   -3823.92286153 Ry
     hartree contribution      =    1962.07372808 Ry
     xc contribution           =    -348.51082537 Ry
     ewald contribution        =     781.71869004 Ry

     convergence has been achieved in  10 iterations

     Forces acting on atoms (cartesian axes, Ry/au):

     atom    1 type  1   force =    -0.00790050    0.00026479   -0.00763428
     atom    2 type  1   force =     0.00758393    0.00123196    0.01050000
     atom    3 type  1   force =     0.00142393   -0.00084736   -0.00080166
     atom    4 type  1   force =     0.00000168   -0.00061028   -0.00034688
     atom    5 type  1   force =    -0.00265471   -0.00054825    0.00085008
     atom    6 type  1   force =     0.00169900    0.00832554   -0.00517843
     atom    7 type  1   force =     0.00016145   -0.00725521   -0.00600336
     atom    8 type  1   force =    -0.00031477   -0.00056119    0.00861452

     Total force =     0.023756     Total SCF correction =     0.002818
     SCF correction compared to forces is large: reduce conv_thr to get better values

     BFGS Geometry Optimization
     Energy error            =      0.0E+00 Ry
     Gradient error          =      1.0E-02 Ry/Bohr

     number of scf cycles    =   1
     number of bfgs steps    =   0

     energy             new  =   -1428.6443366338 Ry

     new trust radius        =       0.0130109095 bohr
     new conv_thr            =       0.0000010000 Ry

ATOMIC_POSITIONS (angstrom)
Ge            0.0068644616        0.0180019594        4.9827855387
Ge            2.0244234037       -0.0181303594        6.4381902731
Ge            2.0208555234        2.0256929623        7.8859579467
Ge           -0.0169239980        2.0567407782        9.3410989192
Ge            0.0125721788        0.0173541393       10.7649916664
Ge            2.0493341337       -0.0063175059       12.2229841237
Ge            2.0452942475        2.0530578580       13.6535595485
Ge            0.0064011815        2.0230684403       15.1070249779

     Writing output data file ./out/ge.save/
     NEW-OLD atomic charge density approx. for the potential

[...]

     Total force =     0.017575     Total SCF correction =     0.002755
     SCF correction compared to forces is large: reduce conv_thr to get better values
     Energy error            =      4.9E-04 Ry
     Gradient error          =      7.7E-03 Ry/Bohr

[...]

     energy             old  =   -1428.6443366338 Ry
     energy             new  =   -1428.6448304486 Ry

     CASE: energy            _new < energy            _old

[...]

     Total force =     0.011767     Total SCF correction =     0.000735
     Energy error            =      3.9E-04 Ry
     Gradient error          =      5.4E-03 Ry/Bohr

[...]

     iteration #  2     ecut=    60.00 Ry     beta= 0.40
     Davidson diagonalization with overlap
     c_bands:  1 eigenvalues not converged
     ethr =  8.15E-08,  avg # of iterations =  5.9

[...]

     Total force =     0.003098     Total SCF correction =     0.000162
     Energy error            =      1.8E-05 Ry
     Gradient error          =      1.3E-03 Ry/Bohr

     number of scf cycles    =   6
     number of bfgs steps    =   5

     energy             old  =   -1428.6455733613 Ry
     energy             new  =   -1428.6455918598 Ry

     CASE: energy            _new < energy            _old

     new trust radius        =       0.0056307387 bohr
     new conv_thr            =       0.0000000100 Ry

ATOMIC_POSITIONS (angstrom)
Ge           -0.0069315220        0.0189774780        4.9628338162
Ge            2.0371631757       -0.0148670696        6.4596526090
Ge            2.0245782751        2.0265889950        7.8901350200
Ge           -0.0138027146        2.0534376175        9.3439820694
Ge            0.0074052325        0.0142081318       10.7587890899
Ge            2.0491985990        0.0050720076       12.2093777919
Ge            2.0454008597        2.0440425402       13.6394540342
Ge            0.0058092267        2.0220085716       15.1323685637

     Writing output data file ./out/ge.save/
     NEW-OLD atomic charge density approx. for the potential

     Self-consistent Calculation

[...]

     Threshold (ethr) on eigenvalues was too large:
     Diagonalizing with lowered threshold

     Davidson diagonalization with overlap
     ethr =  5.32E-09,  avg # of iterations =  4.0

[...]

     total energy              =   -1428.64561003 Ry
     estimated scf accuracy    <       0.00000012 Ry

     iteration #  6     ecut=    60.00 Ry     beta= 0.40
     Davidson diagonalization with overlap
     ethr =  1.03E-10,  avg # of iterations =  2.5

     End of self-consistent calculation

[...]

          k = 0.2500 0.0000 0.0000 ( 17755 PWs)   bands (ev):

[...]

          k =-0.5000 0.2500 0.0000 ( 17690 PWs)   bands (ev):

   -21.8671 -21.8647 -21.8449 -21.8301 -21.8032 -21.7967 -21.7866 -21.7421
   -21.7412 -21.7361 -21.7358 -21.7040 -21.7009 -21.6898 -21.6870 -21.6855
   -21.6716 -21.6702 -21.6451 -21.6391 -21.6286 -21.6264 -21.6224 -21.6201
   -21.5738 -21.5611 -21.5575 -21.5554 -21.5173 -21.5155 -21.4125 -21.4101
   -21.3756 -21.3739 -21.3524 -21.3516 -21.3450 -21.3425 -21.2992 -21.2969
    -6.9859  -6.8501  -6.7522  -4.8930  -4.8446  -4.1005  -4.0837  -3.8611
    -0.3476  -0.2340   0.1768   0.2267   0.5183   0.9463   1.9315   1.9536
     3.3079   3.4905   4.9738   5.1628   5.6277   5.7902   5.9463   6.8891
     7.5082   8.3074   8.5661

     the Fermi energy is     2.6278 ev

!    total energy              =   -1428.64561004 Ry
     estimated scf accuracy    <          9.8E-09 Ry
     smearing contrib. (-TS)   =      -0.00281360 Ry
     internal energy E=F+TS    =   -1428.64279644 Ry

     The total energy is F=E-TS. E is the sum of the following terms:
     one-electron contribution =   -3819.34915595 Ry
     hartree contribution      =    1959.80585223 Ry
     xc contribution           =    -348.49361673 Ry
     ewald contribution        =     779.39412400 Ry

     convergence has been achieved in   6 iterations

     Forces acting on atoms (cartesian axes, Ry/au):

     atom    1 type  1   force =     0.00061840    0.00004837    0.00021150
     atom    2 type  1   force =    -0.00065624    0.00034301   -0.00070429
     atom    3 type  1   force =     0.00037592    0.00034624    0.00022343
     atom    4 type  1   force =     0.00037578   -0.00040130   -0.00012904
     atom    5 type  1   force =    -0.00017496   -0.00042437   -0.00043518
     atom    6 type  1   force =    -0.00049166   -0.00043544    0.00004965
     atom    7 type  1   force =    -0.00001917    0.00051568    0.00050027
     atom    8 type  1   force =    -0.00002808    0.00000781    0.00028367

     Total force =     0.001880     Total SCF correction =     0.000213
     SCF correction compared to forces is large: reduce conv_thr to get better values
     Energy error            =      1.8E-05 Ry
     Gradient error          =      7.0E-04 Ry/Bohr

     bfgs converged in   7 scf cycles and   6 bfgs steps
     (criteria: energy <  1.0E-04 Ry, force <  1.0E-03 Ry/Bohr)

     End of BFGS Geometry Optimization

     Final energy             =   -1428.6456100421 Ry

     File ./out/ge.bfgs deleted, as requested
Begin final coordinates

ATOMIC_POSITIONS (angstrom)
Ge           -0.0069315220        0.0189774780        4.9628338162
Ge            2.0371631757       -0.0148670696        6.4596526090
Ge            2.0245782751        2.0265889950        7.8901350200
Ge           -0.0138027146        2.0534376175        9.3439820694
Ge            0.0074052325        0.0142081318       10.7587890899
Ge            2.0491985990        0.0050720076       12.2093777919
Ge            2.0454008597        2.0440425402       13.6394540342
Ge            0.0058092267        2.0220085716       15.1323685637
End final coordinates

     Writing output data file ./out/ge.save/

     General routines

     Parallel routines

   This run was terminated on:  22:47:43  28Apr2025

   JOB DONE.