     Program PWSCF v.7.2 starts on 28Apr2025 at  7:55:50

     Waiting for input...
     Reading input from standard input
Warning: card &CELL ignored
Warning: card / ignored
Warning: card &FCP ignored
Warning: card / ignored
Warning: card &RISM ignored
Warning: card / ignored

     Current dimensions of program PWSCF are:
     Max number of different atomic species (ntypx) = 10
     Max number of k-points (npk) =  40000
     Max angular momentum in pseudopotentials (lmaxx) =  4
     Message from routine find_sym:
     Not a group! Trying with lower acceptance parameter...
     Message from routine find_sym:
     Still not a group! symmetry disabled

     K-points division:     npool     =       4
     R & G space division:  proc/nbgrp/npool/nimage =       4
     Subspace diagonalization in iterative solution of the eigenvalue problem:
     a serial algorithm will be used

     Using Slab Decomposition

     bravais-lattice index     =            0
     lattice parameter (alat)  =       7.5830  a.u.
     unit-cell volume          =    2097.2343 (a.u.)^3
     number of atoms/cell      =            8
     number of atomic types    =            1
     number of electrons       =       112.00
     number of Kohn-Sham states=           67
     kinetic-energy cutoff     =      60.0000  Ry
     charge density cutoff     =     240.0000  Ry
     scf convergence threshold =      1.0E-06
     mixing beta               =       0.4000
     number of iterations used =            8  plain     mixing
     energy convergence thresh.=      1.0E-04
     force convergence thresh. =      1.0E-03
     Exchange-correlation= PBE
                           (   1   4   3   4   0   0   0)
     nstep                     =           50

     celldm(1)=   7.582957  celldm(2)=   0.000000  celldm(3)=   0.000000
     celldm(4)=   0.000000  celldm(5)=   0.000000  celldm(6)=   0.000000

     crystal axes: (cart. coord. in units of alat)
               a(1) = (   1.000000   0.000000   0.000000 )
               a(2) = (   0.500000   0.866025   0.000000 )
               a(3) = (   0.000000   0.000000   5.553933 )

     reciprocal axes: (cart. coord. in units 2 pi/alat)
               b(1) = (  1.000000 -0.577351  0.000000 )
               b(2) = (  0.000000  1.154701  0.000000 )
               b(3) = (  0.000000  0.000000  0.180053 )

     PseudoPot. # 1 for Ge read from file:
     ./Ge.upf
     MD5 check sum: 087fa14d6c89b52166990835c3b338da
     Pseudo is Norm-conserving + core correction, Zval = 14.0
     Generated using ONCVPSP code by D. R. Hamann
     Using radial grid of 1560 points,  6 beta functions with:
                l(1) =   0
                l(2) =   0
                l(3) =   1
                l(4) =   1
                l(5) =   2
                l(6) =   2

     atomic species   valence    mass     pseudopotential
        Ge            14.00    72.63000     Ge( 1.00)

     No symmetry found

   Cartesian axes

     site n.     atom                  positions (alat units)
         1           Ge  tau(   1) = (   0.2500002   0.1443376   1.8584076  )
         2           Ge  tau(   2) = (   0.2500001   0.1443376   1.2460352  )
         3           Ge  tau(   3) = (   0.7500004   0.4330127   2.6749042  )
         4           Ge  tau(   4) = (   0.7500003   0.4330127   2.0625318  )
         5           Ge  tau(   5) = (   1.2500006   0.7216879   3.4914008  )
         6           Ge  tau(   6) = (   1.2500005   0.7216879   2.8790284  )
         7           Ge  tau(   7) = (   0.2500006   0.1443376   4.3078975  )
         8           Ge  tau(   8) = (   0.2500005   0.1443376   3.6955250  )

     number of k points=    10  Gaussian smearing, width (Ry)=  0.0100
                       cart. coord. in units 2pi/alat
        k(    1) = (   0.0000000   0.0000000   0.0000000), wk =   0.1250000
        k(    2) = (   0.0000000   0.2886751   0.0000000), wk =   0.2500000
        k(    3) = (   0.0000000  -0.5773503   0.0000000), wk =   0.1250000
        k(    4) = (   0.2500000  -0.7216879   0.0000000), wk =   0.2500000
        k(    5) = (  -0.2500000  -0.1443375   0.0000000), wk =   0.2500000
        k(    6) = (   0.2500000  -0.1443376   0.0000000), wk =   0.2500000
        k(    7) = (   0.5000000   0.2886750   0.0000000), wk =   0.1250000
        k(    8) = (  -0.5000000   0.2886753   0.0000000), wk =   0.1250000
        k(    9) = (   0.5000000   0.5773501   0.0000000), wk =   0.2500000
        k(   10) = (  -0.7500000   0.1443378   0.0000000), wk =   0.2500000

     Initial potential from superposition of free atoms

     starting charge     111.9934, renormalised to     112.0000

     negative rho (up, down):  5.023E-06 0.000E+00
     Starting wfcs are   72 randomized atomic wfcs

     Self-consistent Calculation

     iteration #  1     ecut=    60.00 Ry     beta= 0.40
     Davidson diagonalization with overlap
     ethr =  1.00E-02,  avg # of iterations =  3.1

     Threshold (ethr) on eigenvalues was too large:
     Diagonalizing with lowered threshold

     Davidson diagonalization with overlap
     ethr =  3.78E-04,  avg # of iterations =  3.5

     negative rho (up, down):  1.355E-06 0.000E+00

     total energy              =   -1428.43847562 Ry
     estimated scf accuracy    <       0.46204532 Ry

[...]

     End of self-consistent calculation

          k = 0.0000 0.0000 0.0000 ( 16519 PWs)   bands (ev):

   -21.4106 -21.4106 -21.4092 -21.4092 -21.2813 -21.2813 -21.2773 -21.2766
   -21.2766 -21.2755 -21.2729 -21.2729 -21.2428 -21.2335 -21.2117 -21.2117
   -21.1748 -21.1748 -21.1612 -21.1612 -21.1177 -21.1177 -21.1164 -21.1164
   -21.0184 -21.0183 -21.0178 -21.0080 -20.9845 -20.9845 -20.8523 -20.8523
   -20.8520 -20.8520 -20.8416 -20.8378 -20.8104 -20.8104 -20.8076 -20.8076
    -8.7939  -8.2256  -7.4885  -5.0243  -4.7534  -2.4990  -0.6313   1.2892
     2.4703   2.4703   2.9016   2.9016   3.1214   3.3956   3.3956   3.9907
     4.3597   4.3868   5.8103   5.8103   6.0121   6.0122   6.3186   7.0441
     7.0608   7.0610   7.6095

[...]

          k =-0.2500-0.1443 0.0000 ( 16480 PWs)   bands (ev):

[...]

     the Fermi energy is     3.2451 ev

!    total energy              =   -1428.61025523 Ry
     estimated scf accuracy    <       0.00000074 Ry
     smearing contrib. (-TS)   =      -0.00041734 Ry
     internal energy E=F+TS    =   -1428.60983790 Ry

     The total energy is F=E-TS. E is the sum of the following terms:
     one-electron contribution =   -4283.85870263 Ry
     hartree contribution      =    2194.12180881 Ry
     xc contribution           =    -348.53008518 Ry
     ewald contribution        =    1009.65714110 Ry

     convergence has been achieved in  10 iterations

     Forces acting on atoms (cartesian axes, Ry/au):

     atom    1 type  1   force =    -0.00000018    0.00000157   -0.01036923
     atom    2 type  1   force =     0.00000583   -0.00000033   -0.01364591
     atom    3 type  1   force =    -0.00000108   -0.00000068   -0.00715590
     atom    4 type  1   force =    -0.00000174    0.00000203    0.01336565
     atom    5 type  1   force =     0.00000084   -0.00000261   -0.01393255
     atom    6 type  1   force =    -0.00000363   -0.00000035    0.00791403
     atom    7 type  1   force =     0.00000183   -0.00000066    0.01349506
     atom    8 type  1   force =    -0.00000188    0.00000103    0.01032885
     The non-local contrib.  to forces
     atom    1 type  1   force =     0.00000045    0.00000067    0.18623089
     atom    2 type  1   force =     0.00000683   -0.00000147    0.45172546
     atom    3 type  1   force =    -0.00000438   -0.00000294    0.08293091
     atom    4 type  1   force =    -0.00000468   -0.00000581   -0.03064237
     atom    5 type  1   force =     0.00000261    0.00000258    0.03003349
     atom    6 type  1   force =    -0.00000182   -0.00000051   -0.08209391
     atom    7 type  1   force =     0.00000127   -0.00000180   -0.45204089
     atom    8 type  1   force =    -0.00000065   -0.00000159   -0.18616655
     The ionic contribution  to forces
     atom    1 type  1   force =     0.00001151    0.00000074  -91.29535888
     atom    2 type  1   force =    -0.00000088   -0.00000016 -131.36279651
     atom    3 type  1   force =     0.00001099    0.00000070  -10.18608030
     atom    4 type  1   force =    -0.00001103   -0.00000070  -71.22334046
     atom    5 type  1   force =     0.00001103    0.00000070   71.22334045
     atom    6 type  1   force =    -0.00001099   -0.00000070   10.18608030
     atom    7 type  1   force =     0.00000088    0.00000016  131.36279651
     atom    8 type  1   force =    -0.00001151   -0.00000074   91.29535888
     The local contribution  to forces
     atom    1 type  1   force =    -0.00001432    0.00000313   91.09230542
     atom    2 type  1   force =    -0.00000579    0.00000184  130.89781297
     atom    3 type  1   force =    -0.00001278    0.00000101   10.09266930
     atom    4 type  1   force =     0.00000933    0.00000371   71.26768293
     atom    5 type  1   force =    -0.00001432    0.00000152  -71.26742304
     atom    6 type  1   force =     0.00001565    0.00000294  -10.09309852
     atom    7 type  1   force =    -0.00000214   -0.00000153 -130.89753109
     atom    8 type  1   force =     0.00000988    0.00000309  -91.09189669
     The core correction contribution to forces
     atom    1 type  1   force =     0.00000007   -0.00000017    0.00499205
     atom    2 type  1   force =    -0.00000059    0.00000003   -0.00149815
     atom    3 type  1   force =    -0.00000020   -0.00000012    0.00219828
     atom    4 type  1   force =    -0.00000008   -0.00000083   -0.00240365
     atom    5 type  1   force =     0.00000007    0.00000072    0.00243743
     atom    6 type  1   force =     0.00000039    0.00000017   -0.00225805
     atom    7 type  1   force =    -0.00000019   -0.00000000    0.00153536
     atom    8 type  1   force =    -0.00000005    0.00000005   -0.00495182
     The Hubbard contrib.    to forces
     atom    1 type  1   force =     0.00000000    0.00000000    0.00000000
     atom    2 type  1   force =     0.00000000    0.00000000    0.00000000
     atom    3 type  1   force =     0.00000000    0.00000000    0.00000000
     atom    4 type  1   force =     0.00000000    0.00000000    0.00000000
     atom    5 type  1   force =     0.00000000    0.00000000    0.00000000
     atom    6 type  1   force =     0.00000000    0.00000000    0.00000000
     atom    7 type  1   force =     0.00000000    0.00000000    0.00000000
     atom    8 type  1   force =     0.00000000    0.00000000    0.00000000
     The SCF correction term to forces
     atom    1 type  1   force =     0.00000201   -0.00000341    0.00142980
     atom    2 type  1   force =     0.00000617   -0.00000116    0.00107883
     atom    3 type  1   force =     0.00000520    0.00000007    0.00109442
     atom    4 type  1   force =     0.00000462    0.00000505    0.00203771
     atom    5 type  1   force =     0.00000137   -0.00000872   -0.00235237
     atom    6 type  1   force =    -0.00000695   -0.00000287   -0.00074727
     atom    7 type  1   force =     0.00000192    0.00000191   -0.00129632
     atom    8 type  1   force =     0.00000036   -0.00000038   -0.00204646

     Total force =     0.032698     Total SCF correction =     0.004530
     SCF correction compared to forces is large: reduce conv_thr to get better values

     BFGS Geometry Optimization
     Energy error            =      0.0E+00 Ry
     Gradient error          =      1.4E-02 Ry/Bohr

     number of scf cycles    =   1
     number of bfgs steps    =   0

     energy             new  =   -1428.6102552324 Ry

     new trust radius        =       0.0139325507 bohr
     new conv_thr            =       0.0000010000 Ry

ATOMIC_POSITIONS (angstrom)
Ge            1.0031825015        0.5791882674        7.4517968697
Ge            1.0031852787        0.5791872075        4.9927788957
Ge            3.0095468168        1.7375619017       10.7298759929
Ge            3.0095460592        1.7375632746        8.2834514996
Ge            5.0159126212        2.8959357001       14.0026686470
Ge            5.0159098469        2.8959368362       11.5569453334
Ge            1.0031851857        0.5791873204       17.2935614163
Ge            1.0031828221        0.5791881567       14.8346019012

     Writing config-only to output data dir ./out/ge.save/
     NEW-OLD atomic charge density approx. for the potential

[...]

     Total force =     0.025688     Total SCF correction =     0.003145
     SCF correction compared to forces is large: reduce conv_thr to get better values
     Energy error            =      9.5E-04 Ry
     Gradient error          =      1.3E-02 Ry/Bohr

[...]

     energy             old  =   -1428.6102552324 Ry
     energy             new  =   -1428.6112032864 Ry

     CASE: energy            _new < energy            _old

[...]

     Total force =     0.020993     Total SCF correction =     0.001021
     Energy error            =      7.2E-04 Ry
     Gradient error          =      1.2E-02 Ry/Bohr

[...]

     negative rho (up, down):  7.075E-08 0.000E+00

[...]

     Total force =     0.009617     Total SCF correction =     0.000862
     Energy error            =      2.5E-04 Ry
     Gradient error          =      6.1E-03 Ry/Bohr

[...]

     number of scf cycles    =  13
     number of bfgs steps    =  12

     energy             old  =   -1428.6173138813 Ry
     energy             new  =   -1428.6174181444 Ry

     CASE: energy            _new < energy            _old

     new trust radius        =       0.0054330282 bohr
     new conv_thr            =       0.0000000104 Ry

ATOMIC_POSITIONS (angstrom)
Ge            1.0031799822        0.5791961681        7.2975432839
Ge            1.0032076471        0.5791874679        4.8047435027
Ge            3.0095373861        1.7375598567       10.7020414578
Ge            3.0095434862        1.7375705064        8.2192806783
Ge            5.0159088265        2.8959335409       14.0674895472
Ge            5.0159016192        2.8959344874       11.5842211533
Ge            1.0031904407        0.5791841987       17.4815024351
Ge            1.0031817440        0.5791824387       14.9888584975

     Writing config-only to output data dir ./out/ge.save/
     NEW-OLD atomic charge density approx. for the potential

     Self-consistent Calculation

[...]

     Threshold (ethr) on eigenvalues was too large:
     Diagonalizing with lowered threshold

     Davidson diagonalization with overlap
     ethr =  6.00E-09,  avg # of iterations =  4.0

[...]

     total energy              =   -1428.61743787 Ry
     estimated scf accuracy    <       0.00000004 Ry

     iteration #  7     ecut=    60.00 Ry     beta= 0.40
     Davidson diagonalization with overlap
     ethr =  3.88E-11,  avg # of iterations =  2.0

     End of self-consistent calculation

[...]

          k = 0.5000 0.5774 0.0000 ( 16437 PWs)   bands (ev):

[...]

          k =-0.7500 0.1443 0.0000 ( 16437 PWs)   bands (ev):

   -21.4690 -21.4676 -21.4651 -21.4638 -21.3423 -21.3408 -21.3404 -21.3384
   -21.3242 -21.3218 -21.1624 -21.1428 -21.1294 -21.0535 -21.0426 -21.0405
   -21.0301 -21.0204 -21.0010 -20.9988 -20.9822 -20.9650 -20.9519 -20.9468
   -20.9415 -20.9394 -20.9312 -20.8789 -20.8675 -20.8400 -20.7612 -20.7599
   -20.7340 -20.7332 -20.7155 -20.7142 -20.6997 -20.6987 -20.6790 -20.6786
    -6.6640  -6.1907  -5.6259  -4.8498  -4.0920  -3.4053  -2.7804  -2.5584
     0.1731   0.2237   0.3342   0.6268   1.3225   2.1782   2.3852   2.8728
     2.9139   3.8752   4.0735   6.0554   6.1035   6.4956   7.3362   7.9618
     8.2336   8.3905   8.8176

     the Fermi energy is     3.3824 ev

!    total energy              =   -1428.61743788 Ry
     estimated scf accuracy    <          3.7E-09 Ry
     smearing contrib. (-TS)   =      -0.00053605 Ry
     internal energy E=F+TS    =   -1428.61690182 Ry

     The total energy is F=E-TS. E is the sum of the following terms:
     one-electron contribution =   -3955.32306518 Ry
     hartree contribution      =    2030.20189829 Ry
     xc contribution           =    -348.40942449 Ry
     ewald contribution        =     844.91368956 Ry

     convergence has been achieved in   7 iterations

     Forces acting on atoms (cartesian axes, Ry/au):

     atom    1 type  1   force =     0.00000020   -0.00000031    0.00020373
     atom    2 type  1   force =    -0.00000041    0.00000008   -0.00049313
     atom    3 type  1   force =     0.00000026    0.00000013   -0.00017764
     atom    4 type  1   force =    -0.00000000   -0.00000010    0.00033110
     atom    5 type  1   force =     0.00000031   -0.00000021   -0.00049958
     atom    6 type  1   force =     0.00000010    0.00000007    0.00032976
     atom    7 type  1   force =    -0.00000011   -0.00000005    0.00051912
     atom    8 type  1   force =    -0.00000035    0.00000040   -0.00021336
     The non-local contrib.  to forces
     atom    1 type  1   force =     0.00000135   -0.00000134    0.17773677
     atom    2 type  1   force =    -0.00000437    0.00000131    0.44114642
     atom    3 type  1   force =     0.00000107    0.00000086    0.06710595
     atom    4 type  1   force =     0.00000173   -0.00000174   -0.01391486
     atom    5 type  1   force =    -0.00000011    0.00000031    0.01392008
     atom    6 type  1   force =     0.00000126    0.00000099   -0.06723696
     atom    7 type  1   force =    -0.00000134   -0.00000022   -0.44118193
     atom    8 type  1   force =    -0.00000016    0.00000015   -0.17773930
     The ionic contribution  to forces
     atom    1 type  1   force =    -0.00009316    0.00001965  -88.59718653
     atom    2 type  1   force =     0.00008167   -0.00002581 -124.27841729
     atom    3 type  1   force =    -0.00000825   -0.00003364  -10.88530726
     atom    4 type  1   force =     0.00002784    0.00003428  -66.36561477
     atom    5 type  1   force =     0.00004871   -0.00002219   66.35942657
     atom    6 type  1   force =    -0.00002623    0.00000743   10.89384555
     atom    7 type  1   force =     0.00002498    0.00000563  124.28532464
     atom    8 type  1   force =    -0.00005556    0.00001466   88.58792909
     The local contribution  to forces
     atom    1 type  1   force =     0.00009214   -0.00001865   88.41699396
     atom    2 type  1   force =    -0.00007781    0.00002455  123.83884619
     atom    3 type  1   force =     0.00000735    0.00003309   10.81758461
     atom    4 type  1   force =    -0.00002974   -0.00003263   66.37958185
     atom    5 type  1   force =    -0.00004835    0.00002162  -66.37349310
     atom    6 type  1   force =     0.00002509   -0.00000837  -10.82603243
     atom    7 type  1   force =    -0.00002384   -0.00000547 -123.84558644
     atom    8 type  1   force =     0.00005534   -0.00001455  -88.40755820
     The core correction contribution to forces
     atom    1 type  1   force =    -0.00000012    0.00000003    0.00265437
     atom    2 type  1   force =     0.00000008   -0.00000002   -0.00188156
     atom    3 type  1   force =    -0.00000002   -0.00000004    0.00031053
     atom    4 type  1   force =     0.00000007    0.00000003    0.00016554
     atom    5 type  1   force =     0.00000005   -0.00000002   -0.00016115
     atom    6 type  1   force =    -0.00000003    0.00000002   -0.00031411
     atom    7 type  1   force =     0.00000002    0.00000001    0.00188309
     atom    8 type  1   force =    -0.00000006   -0.00000001   -0.00265723
     The Hubbard contrib.    to forces
     atom    1 type  1   force =     0.00000000    0.00000000    0.00000000
     atom    2 type  1   force =     0.00000000    0.00000000    0.00000000
     atom    3 type  1   force =     0.00000000    0.00000000    0.00000000
     atom    4 type  1   force =     0.00000000    0.00000000    0.00000000
     atom    5 type  1   force =     0.00000000    0.00000000    0.00000000
     atom    6 type  1   force =     0.00000000    0.00000000    0.00000000
     atom    7 type  1   force =     0.00000000    0.00000000    0.00000000
     atom    8 type  1   force =     0.00000000    0.00000000    0.00000000
     The SCF correction term to forces
     atom    1 type  1   force =    -0.00000002    0.00000000    0.00000420
     atom    2 type  1   force =     0.00000000    0.00000006   -0.00018784
     atom    3 type  1   force =     0.00000010   -0.00000014    0.00012758
     atom    4 type  1   force =     0.00000007   -0.00000003    0.00011238
     atom    5 type  1   force =    -0.00000001    0.00000007   -0.00019293
     atom    6 type  1   force =    -0.00000000    0.00000002    0.00006676
     atom    7 type  1   force =     0.00000004    0.00000001    0.00007881
     atom    8 type  1   force =     0.00000007    0.00000015   -0.00018867

     Total force =     0.001048     Total SCF correction =     0.000384
     SCF correction compared to forces is large: reduce conv_thr to get better values
     Energy error            =      2.0E-05 Ry
     Gradient error          =      5.2E-04 Ry/Bohr

     bfgs converged in  14 scf cycles and  13 bfgs steps
     (criteria: energy <  1.0E-04 Ry, force <  1.0E-03 Ry/Bohr)

     End of BFGS Geometry Optimization

     Final energy             =   -1428.6174378766 Ry

     File ./out/ge.bfgs deleted, as requested
Begin final coordinates

ATOMIC_POSITIONS (angstrom)
Ge            1.0031799822        0.5791961681        7.2975432839
Ge            1.0032076471        0.5791874679        4.8047435027
Ge            3.0095373861        1.7375598567       10.7020414578
Ge            3.0095434862        1.7375705064        8.2192806783
Ge            5.0159088265        2.8959335409       14.0674895472
Ge            5.0159016192        2.8959344874       11.5842211533
Ge            1.0031904407        0.5791841987       17.4815024351
Ge            1.0031817440        0.5791824387       14.9888584975
End final coordinates

     Writing all to output data dir ./out/ge.save/

     General routines

     Parallel routines

   This run was terminated on:   8:21:31  28Apr2025

   JOB DONE.