     Program PWSCF v.6.8 starts on 28Apr2025 at 10:44:45

     R & G space division:  proc/nbgrp/npool/nimage =      56

     Reading input from surface_relax.in
Warning: card &CELL ignored
Warning: card / ignored
Warning: card &FCP ignored
Warning: card / ignored
Warning: card &RISM ignored
Warning: card / ignored

     Current dimensions of program PWSCF are:
     Max number of different atomic species (ntypx) = 10
     Max number of k-points (npk) =  40000
     Max angular momentum in pseudopotentials (lmaxx) =  4
     Message from routine setup:
     using ibrav=0 with symmetry is DISCOURAGED, use correct ibrav instead

     Using Slab Decomposition

     bravais-lattice index     =            0
     lattice parameter (alat)  =       7.5830  a.u.
     unit-cell volume          =    1943.0746 (a.u.)^3
     number of atoms/cell      =            8
     number of atomic types    =            1
     number of electrons       =       112.00
     number of Kohn-Sham states=           67
     kinetic-energy cutoff     =      60.0000  Ry
     charge density cutoff     =     240.0000  Ry
     scf convergence threshold =      1.0E-06
     mixing beta               =       0.4000
     number of iterations used =            8  plain     mixing
     energy convergence thresh.=      1.0E-04
     force convergence thresh. =      1.0E-03
     Exchange-correlation= PBE
                           (   1   4   3   4   0   0   0)
     nstep                     =           50

     celldm(1)=   7.582956  celldm(2)=   0.000000  celldm(3)=   0.000000
     celldm(4)=   0.000000  celldm(5)=   0.000000  celldm(6)=   0.000000

     crystal axes: (cart. coord. in units of alat)
               a(1) = (   1.000000   0.000000   0.000000 )
               a(2) = (  -0.500000   0.866025   0.000000 )
               a(3) = (   0.000000   0.000000   5.145685 )

     reciprocal axes: (cart. coord. in units 2 pi/alat)
               b(1) = (  1.000000  0.577350  0.000000 )
               b(2) = (  0.000000  1.154701  0.000000 )
               b(3) = (  0.000000  0.000000  0.194338 )

     PseudoPot. # 1 for Ge read from file:
     ./Ge.upf
     MD5 check sum: 087fa14d6c89b52166990835c3b338da
     Pseudo is Norm-conserving + core correction, Zval = 14.0
     Generated using ONCVPSP code by D. R. Hamann
     Using radial grid of 1560 points,  6 beta functions with:
                l(1) =   0
                l(2) =   0
                l(3) =   1
                l(4) =   1
                l(5) =   2
                l(6) =   2

     atomic species   valence    mass     pseudopotential
        Ge            14.00    72.63000     Ge( 1.00)

     12 Sym. Ops., with inversion, found ( 6 have fractional translation)

   Cartesian axes

     site n.     atom                  positions (alat units)
         1           Ge  tau(   1) = (   0.5000001   0.2886751   1.4501594  )
         2           Ge  tau(   2) = (   0.0000000  -0.0000000   1.2460353  )
         3           Ge  tau(   3) = (   0.0000002   0.5773502   2.2666562  )
         4           Ge  tau(   4) = (   0.5000002   0.2886751   2.0625320  )
         5           Ge  tau(   5) = (   0.0000002  -0.0000001   3.0831530  )
         6           Ge  tau(   6) = (   0.0000003   0.5773502   2.8790288  )
         7           Ge  tau(   7) = (   0.5000004   0.2886750   3.8996498  )
         8           Ge  tau(   8) = (   0.0000003  -0.0000001   3.6955256  )

     number of k points=     4  Gaussian smearing, width (Ry)=  0.0100
                       cart. coord. in units 2pi/alat
        k(    1) = (   0.0000000   0.0000000   0.0000000), wk =   0.1250000
        k(    2) = (   0.0000000   0.2886751   0.0000000), wk =   0.7500000
        k(    3) = (   0.0000000  -0.5773503   0.0000000), wk =   0.3750000
        k(    4) = (   0.2500000   0.4330127   0.0000000), wk =   0.7500000

     Initial potential from superposition of free atoms

     starting charge  111.99342, renormalised to  112.00000

     negative rho (up, down):  3.751E-06 0.000E+00
     Starting wfcs are   72 randomized atomic wfcs

     Self-consistent Calculation

     iteration #  1     ecut=    60.00 Ry     beta= 0.40
     Davidson diagonalization with overlap
     ethr =  1.00E-02,  avg # of iterations =  3.0

     Threshold (ethr) on eigenvalues was too large:
     Diagonalizing with lowered threshold

     Davidson diagonalization with overlap
     ethr =  1.44E-04,  avg # of iterations =  9.5

     negative rho (up, down):  1.082E-06 0.000E+00

     total energy              =   -1428.67939727 Ry
     estimated scf accuracy    <       0.18142259 Ry

[...]

     End of self-consistent calculation

          k = 0.0000 0.0000 0.0000 ( 15277 PWs)   bands (ev):

   -20.6309 -20.6309 -20.6164 -20.6164 -20.6123 -20.5829 -20.5769 -20.5630
   -20.5630 -20.5421 -20.5421 -20.4127 -20.4127 -20.4079 -20.4079 -20.3884
   -20.3884 -20.3780 -20.3713 -20.3713 -20.3552 -20.3552 -20.3354 -20.3354
   -20.3221 -20.3221 -20.3185 -20.3185 -20.2927 -20.2879 -20.2112 -20.2111
   -20.1351 -20.1351 -20.1345 -20.1345 -20.1009 -20.1009 -20.1006 -20.1006
    -8.1931  -7.6771  -6.9945  -6.4580  -2.5308  -0.9871   0.9555   3.0845
     3.0845   3.1100   3.4766   3.4766   3.9638   3.9638   4.2776   4.2776
     4.5749   4.9273   5.0803   5.2925   5.4529   7.2488   7.2488   7.8670
     7.8671   8.1904   8.1904

[...]

     the Fermi energy is     4.0991 ev

!    total energy              =   -1428.69699092 Ry
     estimated scf accuracy    <       0.00000081 Ry
     smearing contrib. (-TS)   =      -0.00322935 Ry
     internal energy E=F+TS    =   -1428.69376157 Ry

     The total energy is F=E-TS. E is the sum of the following terms:
     one-electron contribution =   -3678.60224811 Ry
     hartree contribution      =    1894.53589860 Ry
     xc contribution           =    -348.85470562 Ry
     ewald contribution        =     704.22729355 Ry

     convergence has been achieved in   8 iterations

     Forces acting on atoms (cartesian axes, Ry/au):

     atom    1 type  1   force =     0.00000000   -0.00000000   -0.00738323
     atom    2 type  1   force =     0.00000000    0.00000000   -0.00820016
     atom    3 type  1   force =     0.00000000    0.00000000    0.00499498
     atom    4 type  1   force =     0.00000000   -0.00000000    0.00220457
     atom    5 type  1   force =     0.00000000   -0.00000000   -0.00220457
     atom    6 type  1   force =     0.00000000    0.00000000   -0.00499498
     atom    7 type  1   force =     0.00000000    0.00000000    0.00820016
     atom    8 type  1   force =     0.00000000    0.00000000    0.00738323

     Total force =     0.017411     Total SCF correction =     0.002911
     SCF correction compared to forces is large: reduce conv_thr to get better values

     BFGS Geometry Optimization
     Energy error            =      0.0E+00 Ry
     Gradient error          =      8.2E-03 Ry/Bohr

     number of scf cycles    =   1
     number of bfgs steps    =   0

     energy             new  =   -1428.6969909162 Ry

     new trust radius        =       0.0082001576 bohr
     new conv_thr            =       0.0000010000 Ry

ATOMIC_POSITIONS (angstrom)
Ge            2.0063641912        1.1583745874        5.8151877376
Ge            0.0000001386       -0.0000000651        4.9956606635
Ge            0.0000009705        2.3167491098        9.0981170927
Ge            2.0063644685        1.1583744573        8.2775456990
Ge            0.0000009705       -0.0000004554       12.3706863439
Ge            0.0000012477        2.3167489797       11.5501149503
Ge            2.0063653003        1.1583740670       15.6525713795
Ge            0.0000012477       -0.0000005855       14.8330443053

     Writing output data file ./out/ge.save/
     NEW-OLD atomic charge density approx. for the potential

[...]

     Total force =     0.014412     Total SCF correction =     0.004869
     SCF correction compared to forces is large: reduce conv_thr to get better values
     Energy error            =      2.8E-04 Ry
     Gradient error          =      7.7E-03 Ry/Bohr

[...]

     energy             old  =   -1428.6969909162 Ry
     energy             new  =   -1428.6972681218 Ry

     CASE: energy            _new < energy            _old

     WARNING: bfgs curvature condition failed, Theta= 0.981
     new trust radius        =       0.0090201733 bohr
     new conv_thr            =       0.0000000277 Ry

[...]

     Total force =     0.013368     Total SCF correction =     0.000973
     Energy error            =      2.4E-04 Ry
     Gradient error          =      7.7E-03 Ry/Bohr

[...]

     iteration #  1     ecut=    60.00 Ry     beta= 0.40
     Davidson diagonalization with overlap
     c_bands:  2 eigenvalues not converged
     ethr =  1.00E-06,  avg # of iterations = 11.8

[...]

     negative rho (up, down):  2.748E-06 0.000E+00

[...]

     WARNING: bfgs curvature condition failed, Theta= 0.960
     new trust radius        =       0.0024827568 bohr
     new conv_thr            =       0.0000000100 Ry

[...]

     Total force =     0.002105     Total SCF correction =     0.000175
     Energy error            =      9.3E-06 Ry
     Gradient error          =      1.1E-03 Ry/Bohr

     number of scf cycles    =  15
     number of bfgs steps    =  14

     energy             old  =   -1428.7018587401 Ry
     energy             new  =   -1428.7018680252 Ry

     CASE: energy            _new < energy            _old

     new trust radius        =       0.0037241352 bohr
     new conv_thr            =       0.0000000100 Ry

ATOMIC_POSITIONS (angstrom)
Ge            2.0063641912        1.1583745874        5.6973114432
Ge            0.0000001386       -0.0000000651        4.7717416447
Ge            0.0000009705        2.3167491098        9.0746685208
Ge            2.0063644685        1.1583744573        8.2112654564
Ge            0.0000009705       -0.0000004554       12.4369665865
Ge            0.0000012477        2.3167489797       11.5735635222
Ge            2.0063653003        1.1583740670       15.8764903983
Ge            0.0000012477       -0.0000005855       14.9509205997

     Writing output data file ./out/ge.save/
     NEW-OLD atomic charge density approx. for the potential

     Self-consistent Calculation

[...]

     Threshold (ethr) on eigenvalues was too large:
     Diagonalizing with lowered threshold

     Davidson diagonalization with overlap
     ethr =  1.61E-09,  avg # of iterations =  3.8

[...]

     total energy              =   -1428.70187922 Ry
     estimated scf accuracy    <       0.00000005 Ry

     iteration #  5     ecut=    60.00 Ry     beta= 0.40
     Davidson diagonalization with overlap
     ethr =  4.37E-11,  avg # of iterations =  2.0

     End of self-consistent calculation

[...]

          k = 0.2500 0.4330 0.0000 ( 15223 PWs)   bands (ev):

   -20.6475 -20.6408 -20.6363 -20.6139 -20.6036 -20.5568 -20.5190 -20.5130
   -20.4983 -20.4879 -20.4790 -20.4763 -20.4611 -20.4421 -20.4344 -20.4176
   -20.4148 -20.4040 -20.4037 -20.3686 -20.3631 -20.3454 -20.3266 -20.3261
   -20.3169 -20.3163 -20.3031 -20.3022 -20.2975 -20.2971 -20.1730 -20.1714
   -20.1610 -20.1600 -20.1533 -20.1519 -20.1352 -20.1350 -20.0756 -20.0752
    -6.1802  -5.7022  -5.1239  -4.5430  -3.7656  -3.0704  -2.5015  -2.2092
     0.6147   0.6708   0.8869   1.2263   1.2637   1.7449   2.3581   3.8145
     4.0307   6.1569   6.2920   7.2271   7.7582   8.2671   8.8326   8.8457
     8.9236   9.2143   9.4074

     the Fermi energy is     4.0033 ev

!    total energy              =   -1428.70187922 Ry
     estimated scf accuracy    <          7.3E-09 Ry
     smearing contrib. (-TS)   =      -0.00366897 Ry
     internal energy E=F+TS    =   -1428.69821025 Ry

     The total energy is F=E-TS. E is the sum of the following terms:
     one-electron contribution =   -3362.08693397 Ry
     hartree contribution      =    1736.26899750 Ry
     xc contribution           =    -348.71449666 Ry
     ewald contribution        =     545.83422289 Ry

     convergence has been achieved in   5 iterations

     Forces acting on atoms (cartesian axes, Ry/au):

     atom    1 type  1   force =    -0.00000000   -0.00000000   -0.00094382
     atom    2 type  1   force =     0.00000000    0.00000000    0.00042709
     atom    3 type  1   force =     0.00000000   -0.00000000    0.00009657
     atom    4 type  1   force =     0.00000000    0.00000000   -0.00039348
     atom    5 type  1   force =     0.00000000    0.00000000    0.00039348
     atom    6 type  1   force =     0.00000000    0.00000000   -0.00009657
     atom    7 type  1   force =     0.00000000    0.00000000   -0.00042709
     atom    8 type  1   force =     0.00000000    0.00000000    0.00094382

     Total force =     0.001573     Total SCF correction =     0.000690
     SCF correction compared to forces is large: reduce conv_thr to get better values
     Energy error            =      1.1E-05 Ry
     Gradient error          =      9.4E-04 Ry/Bohr

     bfgs converged in  16 scf cycles and  15 bfgs steps
     (criteria: energy <  1.0E-04 Ry, force <  1.0E-03 Ry/Bohr)

     End of BFGS Geometry Optimization

     Final energy             =   -1428.7018792249 Ry

     File ./out/ge.bfgs deleted, as requested
Begin final coordinates

ATOMIC_POSITIONS (angstrom)
Ge            2.0063641912        1.1583745874        5.6973114432
Ge            0.0000001386       -0.0000000651        4.7717416447
Ge            0.0000009705        2.3167491098        9.0746685208
Ge            2.0063644685        1.1583744573        8.2112654564
Ge            0.0000009705       -0.0000004554       12.4369665865
Ge            0.0000012477        2.3167489797       11.5735635222
Ge            2.0063653003        1.1583740670       15.8764903983
Ge            0.0000012477       -0.0000005855       14.9509205997
End final coordinates

     Writing output data file ./out/ge.save/

     General routines

     Parallel routines

   This run was terminated on:  10:45:39  28Apr2025

   JOB DONE.