     Program PWSCF v.6.8 starts on 26May2025 at 16:51:36

     K-points division:     npool     =       4
     R & G space division:  proc/nbgrp/npool/nimage =       2

     Reading input from 00_scf.in

     Current dimensions of program PWSCF are:
     Max number of different atomic species (ntypx) = 10
     Max number of k-points (npk) =  40000
     Max angular momentum in pseudopotentials (lmaxx) =  4
     Message from routine setup:
     using ibrav=0 with symmetry is DISCOURAGED, use correct ibrav instead

     Subspace diagonalization in iterative solution of the eigenvalue problem:
     a serial algorithm will be used

     Using Slab Decomposition

     bravais-lattice index     =            0
     lattice parameter (alat)  =      10.8848  a.u.
     unit-cell volume          =     322.4067 (a.u.)^3
     number of atoms/cell      =            2
     number of atomic types    =            1
     number of electrons       =        28.00
     number of Kohn-Sham states=           18
     kinetic-energy cutoff     =      60.0000  Ry
     charge density cutoff     =     240.0000  Ry
     scf convergence threshold =      1.0E-06
     mixing beta               =       0.5000
     number of iterations used =            8  plain     mixing
     Exchange-correlation= PBE
                           (   1   4   3   4   0   0   0)

     celldm(1)=  10.884822  celldm(2)=   0.000000  celldm(3)=   0.000000
     celldm(4)=   0.000000  celldm(5)=   0.000000  celldm(6)=   0.000000

     crystal axes: (cart. coord. in units of alat)
               a(1) = (   0.000000   0.500000   0.500000 )
               a(2) = (   0.500000   0.000000   0.500000 )
               a(3) = (   0.500000   0.500000   0.000000 )

     reciprocal axes: (cart. coord. in units 2 pi/alat)
               b(1) = ( -1.000000  1.000000  1.000000 )
               b(2) = (  1.000000 -1.000000  1.000000 )
               b(3) = (  1.000000  1.000000 -1.000000 )

     PseudoPot. # 1 for Ge read from file:
     ./Ge.upf
     MD5 check sum: 087fa14d6c89b52166990835c3b338da
     Pseudo is Norm-conserving + core correction, Zval = 14.0
     Generated using ONCVPSP code by D. R. Hamann
     Using radial grid of 1560 points,  6 beta functions with:
                l(1) =   0
                l(2) =   0
                l(3) =   1
                l(4) =   1
                l(5) =   2
                l(6) =   2

     atomic species   valence    mass     pseudopotential
        Ge            14.00    72.63000     Ge( 1.00)

     48 Sym. Ops., with inversion, found (24 have fractional translation)

   Cartesian axes

     site n.     atom                  positions (alat units)
         1           Ge  tau(   1) = (   0.0000000   0.0000000   0.0000000  )
         2           Ge  tau(   2) = (   0.2500000   0.2500000   0.2500000  )

     number of k points=    29  Gaussian smearing, width (Ry)=  0.0100
                       cart. coord. in units 2pi/alat
        k(    1) = (   0.0000000   0.0000000   0.0000000), wk =   0.0039062
        k(    2) = (   0.1250000   0.1250000  -0.1250000), wk =   0.0312500
        k(    3) = (   0.2500000   0.2500000  -0.2500000), wk =   0.0312500
        k(    4) = (   0.3750000   0.3750000  -0.3750000), wk =   0.0312500
        k(    5) = (  -0.5000000  -0.5000000   0.5000000), wk =   0.0156250
        k(    6) = (   0.2500000   0.0000000   0.0000000), wk =   0.0234375
        k(    7) = (   0.3750000   0.1250000  -0.1250000), wk =   0.0937500
        k(    8) = (   0.5000000   0.2500000  -0.2500000), wk =   0.0937500
        k(    9) = (  -0.3750000  -0.6250000   0.6250000), wk =   0.0937500
        k(   10) = (  -0.2500000  -0.5000000   0.5000000), wk =   0.0937500
        k(   11) = (  -0.1250000  -0.3750000   0.3750000), wk =   0.0937500
        k(   12) = (   0.0000000  -0.2500000   0.2500000), wk =   0.0468750
        k(   13) = (   0.5000000   0.0000000   0.0000000), wk =   0.0234375
        k(   14) = (   0.6250000   0.1250000  -0.1250000), wk =   0.0937500
        k(   15) = (  -0.2500000  -0.7500000   0.7500000), wk =   0.0937500
        k(   16) = (  -0.1250000  -0.6250000   0.6250000), wk =   0.0937500
        k(   17) = (   0.0000000  -0.5000000   0.5000000), wk =   0.0468750
        k(   18) = (   0.7500000   0.0000000   0.0000000), wk =   0.0234375
        k(   19) = (  -0.1250000  -0.8750000   0.8750000), wk =   0.0937500
        k(   20) = (   0.0000000  -0.7500000   0.7500000), wk =   0.0468750
        k(   21) = (  -1.0000000   0.0000000   0.0000000), wk =   0.0117188
        k(   22) = (   0.5000000   0.2500000   0.0000000), wk =   0.0937500
        k(   23) = (  -0.3750000  -0.6250000   0.8750000), wk =   0.1875000
        k(   24) = (  -0.2500000  -0.5000000   0.7500000), wk =   0.0937500
        k(   25) = (  -0.2500000  -0.7500000   1.0000000), wk =   0.0937500
        k(   26) = (  -0.1250000  -0.6250000   0.8750000), wk =   0.1875000
        k(   27) = (   0.0000000  -0.5000000   0.7500000), wk =   0.0937500
        k(   28) = (  -1.0000000   0.2500000   0.0000000), wk =   0.0468750
        k(   29) = (  -1.0000000   0.5000000   0.0000000), wk =   0.0234375

     Initial potential from superposition of free atoms

     starting charge   27.99835, renormalised to   28.00000
     Starting wfcs are   18 randomized atomic wfcs

     Self-consistent Calculation

     iteration #  1     ecut=    60.00 Ry     beta= 0.50
     Davidson diagonalization with overlap
     ethr =  1.00E-02,  avg # of iterations =  3.8

     Threshold (ethr) on eigenvalues was too large:
     Diagonalizing with lowered threshold

     Davidson diagonalization with overlap
     ethr =  1.14E-04,  avg # of iterations =  3.7

     total energy              =    -357.21748045 Ry
     estimated scf accuracy    <       0.03426212 Ry

[...]

     total energy              =    -357.21782294 Ry
     estimated scf accuracy    <       0.00000514 Ry

     iteration #  5     ecut=    60.00 Ry     beta= 0.50
     Davidson diagonalization with overlap
     ethr =  1.83E-08,  avg # of iterations =  2.1

     End of self-consistent calculation

          k = 0.0000 0.0000 0.0000 (  2637 PWs)   bands (ev):

   -16.0650 -16.0650 -16.0650 -16.0460 -16.0460 -15.8652 -15.8652 -15.8652
   -15.8418 -15.8418  -3.5653   8.3521   8.8125   8.8125   8.8125  11.3416
    11.3416  11.3416

[...]

          k =-0.5000-0.5000 0.5000 (  2512 PWs)   bands (ev):

[...]

          k = 0.0000-0.5000 0.7500 (  2529 PWs)   bands (ev):

[...]

          k =-1.0000 0.5000 0.0000 (  2520 PWs)   bands (ev):

   -16.0918 -16.0918 -15.9709 -15.9709 -15.9323 -15.9323 -15.8995 -15.8995
   -15.7811 -15.7811   0.1992   0.1992   5.1584   5.1584  12.9229  12.9230
    13.4996  13.4996

     the Fermi energy is     8.7649 ev

!    total energy              =    -357.21782360 Ry
     estimated scf accuracy    <       0.00000034 Ry
     smearing contrib. (-TS)   =      -0.00007976 Ry
     internal energy E=F+TS    =    -357.21774385 Ry

     The total energy is F=E-TS. E is the sum of the following terms:
     one-electron contribution =    -188.70657821 Ry
     hartree contribution      =     112.70175046 Ry
     xc contribution           =     -87.21573901 Ry
     ewald contribution        =    -193.99717709 Ry

     convergence has been achieved in   5 iterations

     Writing output data file ./Ge_out/Ge_scf.save/

     General routines

     Parallel routines

   This run was terminated on:  16:51:37  26May2025

   JOB DONE.