     Program PWSCF v.6.8 starts on 15May2025 at  0:47: 8

     R & G space division:  proc/nbgrp/npool/nimage =      56

     Reading input from supercell-001.in
Warning: card &CELL ignored
Warning: card / ignored

     Current dimensions of program PWSCF are:
     Max number of different atomic species (ntypx) = 10
     Max number of k-points (npk) =  40000
     Max angular momentum in pseudopotentials (lmaxx) =  4

     gamma-point specific algorithms are used
     Message from routine setup:
     using ibrav=0 with symmetry is DISCOURAGED, use correct ibrav instead

     Using Slab Decomposition

     bravais-lattice index     =            0
     lattice parameter (alat)  =      32.6545  a.u.
     unit-cell volume          =   34819.9244 (a.u.)^3
     number of atoms/cell      =          216
     number of atomic types    =            1
     number of electrons       =      3024.00
     number of Kohn-Sham states=         1814
     kinetic-energy cutoff     =      60.0000  Ry
     charge density cutoff     =     240.0000  Ry
     scf convergence threshold =      1.0E-08
     mixing beta               =       0.5000
     number of iterations used =            8  plain     mixing
     Exchange-correlation= PBE
                           (   1   4   3   4   0   0   0)

     celldm(1)=  32.654468  celldm(2)=   0.000000  celldm(3)=   0.000000
     celldm(4)=   0.000000  celldm(5)=   0.000000  celldm(6)=   0.000000

     crystal axes: (cart. coord. in units of alat)
               a(1) = (   1.000000   0.000000   0.000000 )
               a(2) = (   0.000000   1.000000   0.000000 )
               a(3) = (   0.000000   0.000000   1.000000 )

     reciprocal axes: (cart. coord. in units 2 pi/alat)
               b(1) = (  1.000000  0.000000  0.000000 )
               b(2) = (  0.000000  1.000000  0.000000 )
               b(3) = (  0.000000  0.000000  1.000000 )

     PseudoPot. # 1 for Ge read from file:
     ./Ge.upf
     MD5 check sum: 087fa14d6c89b52166990835c3b338da
     Pseudo is Norm-conserving + core correction, Zval = 14.0
     Generated using ONCVPSP code by D. R. Hamann
     Using radial grid of 1560 points,  6 beta functions with:
                l(1) =   0
                l(2) =   0
                l(3) =   1
                l(4) =   1
                l(5) =   2
                l(6) =   2

     atomic species   valence    mass     pseudopotential
        Ge            14.00    72.64000     Ge( 1.00)

      4 Sym. Ops. (no inversion) found

   Cartesian axes

     site n.     atom                  positions (alat units)
         1           Ge  tau(   1) = (   0.0006125   0.0000000   0.0000000  )
         2           Ge  tau(   2) = (   0.3333333   0.0000000   0.0000000  )
         3           Ge  tau(   3) = (   0.6666667   0.0000000   0.0000000  )
         4           Ge  tau(   4) = (   0.0000000   0.3333333   0.0000000  )
         5           Ge  tau(   5) = (   0.3333333   0.3333333   0.0000000  )
         6           Ge  tau(   6) = (   0.6666667   0.3333333   0.0000000  )
         7           Ge  tau(   7) = (   0.0000000   0.6666667   0.0000000  )
         8           Ge  tau(   8) = (   0.3333333   0.6666667   0.0000000  )
         9           Ge  tau(   9) = (   0.6666667   0.6666667   0.0000000  )
        10           Ge  tau(  10) = (   0.0000000   0.0000000   0.3333333  )
        11           Ge  tau(  11) = (   0.3333333   0.0000000   0.3333333  )
        12           Ge  tau(  12) = (   0.6666667   0.0000000   0.3333333  )
        13           Ge  tau(  13) = (   0.0000000   0.3333333   0.3333333  )
        14           Ge  tau(  14) = (   0.3333333   0.3333333   0.3333333  )
        15           Ge  tau(  15) = (   0.6666667   0.3333333   0.3333333  )
        16           Ge  tau(  16) = (   0.0000000   0.6666667   0.3333333  )
        17           Ge  tau(  17) = (   0.3333333   0.6666667   0.3333333  )
        18           Ge  tau(  18) = (   0.6666667   0.6666667   0.3333333  )
        19           Ge  tau(  19) = (   0.0000000   0.0000000   0.6666667  )
        20           Ge  tau(  20) = (   0.3333333   0.0000000   0.6666667  )
        21           Ge  tau(  21) = (   0.6666667   0.0000000   0.6666667  )
        22           Ge  tau(  22) = (   0.0000000   0.3333333   0.6666667  )
        23           Ge  tau(  23) = (   0.3333333   0.3333333   0.6666667  )
        24           Ge  tau(  24) = (   0.6666667   0.3333333   0.6666667  )
        25           Ge  tau(  25) = (   0.0000000   0.6666667   0.6666667  )
        26           Ge  tau(  26) = (   0.3333333   0.6666667   0.6666667  )
        27           Ge  tau(  27) = (   0.6666667   0.6666667   0.6666667  )
        28           Ge  tau(  28) = (   0.0833333   0.0833333   0.0833333  )
        29           Ge  tau(  29) = (   0.4166667   0.0833333   0.0833333  )
        30           Ge  tau(  30) = (   0.7500000   0.0833333   0.0833333  )
        31           Ge  tau(  31) = (   0.0833333   0.4166667   0.0833333  )
        32           Ge  tau(  32) = (   0.4166667   0.4166667   0.0833333  )
        33           Ge  tau(  33) = (   0.7500000   0.4166667   0.0833333  )
        34           Ge  tau(  34) = (   0.0833333   0.7500000   0.0833333  )
        35           Ge  tau(  35) = (   0.4166667   0.7500000   0.0833333  )
        36           Ge  tau(  36) = (   0.7500000   0.7500000   0.0833333  )
        37           Ge  tau(  37) = (   0.0833333   0.0833333   0.4166667  )
        38           Ge  tau(  38) = (   0.4166667   0.0833333   0.4166667  )
        39           Ge  tau(  39) = (   0.7500000   0.0833333   0.4166667  )
        40           Ge  tau(  40) = (   0.0833333   0.4166667   0.4166667  )
        41           Ge  tau(  41) = (   0.4166667   0.4166667   0.4166667  )
        42           Ge  tau(  42) = (   0.7500000   0.4166667   0.4166667  )
        43           Ge  tau(  43) = (   0.0833333   0.7500000   0.4166667  )
        44           Ge  tau(  44) = (   0.4166667   0.7500000   0.4166667  )
        45           Ge  tau(  45) = (   0.7500000   0.7500000   0.4166667  )
        46           Ge  tau(  46) = (   0.0833333   0.0833333   0.7500000  )
        47           Ge  tau(  47) = (   0.4166667   0.0833333   0.7500000  )
        48           Ge  tau(  48) = (   0.7500000   0.0833333   0.7500000  )
        49           Ge  tau(  49) = (   0.0833333   0.4166667   0.7500000  )
        50           Ge  tau(  50) = (   0.4166667   0.4166667   0.7500000  )
        51           Ge  tau(  51) = (   0.7500000   0.4166667   0.7500000  )
        52           Ge  tau(  52) = (   0.0833333   0.7500000   0.7500000  )
        53           Ge  tau(  53) = (   0.4166667   0.7500000   0.7500000  )
        54           Ge  tau(  54) = (   0.7500000   0.7500000   0.7500000  )
        55           Ge  tau(  55) = (   0.1666667   0.1666667   0.0000000  )
        56           Ge  tau(  56) = (   0.5000000   0.1666667   0.0000000  )
        57           Ge  tau(  57) = (   0.8333333   0.1666667   0.0000000  )
        58           Ge  tau(  58) = (   0.1666667   0.5000000   0.0000000  )
        59           Ge  tau(  59) = (   0.5000000   0.5000000   0.0000000  )
        60           Ge  tau(  60) = (   0.8333333   0.5000000   0.0000000  )
[...]
       202           Ge  tau( 202) = (   0.0833333   0.5833333   0.5833333  )
       203           Ge  tau( 203) = (   0.4166667   0.5833333   0.5833333  )
       204           Ge  tau( 204) = (   0.7500000   0.5833333   0.5833333  )
       205           Ge  tau( 205) = (   0.0833333   0.9166667   0.5833333  )
       206           Ge  tau( 206) = (   0.4166667   0.9166667   0.5833333  )
       207           Ge  tau( 207) = (   0.7500000   0.9166667   0.5833333  )
       208           Ge  tau( 208) = (   0.0833333   0.2500000   0.9166667  )
       209           Ge  tau( 209) = (   0.4166667   0.2500000   0.9166667  )
       210           Ge  tau( 210) = (   0.7500000   0.2500000   0.9166667  )
       211           Ge  tau( 211) = (   0.0833333   0.5833333   0.9166667  )
       212           Ge  tau( 212) = (   0.4166667   0.5833333   0.9166667  )
       213           Ge  tau( 213) = (   0.7500000   0.5833333   0.9166667  )
       214           Ge  tau( 214) = (   0.0833333   0.9166667   0.9166667  )
       215           Ge  tau( 215) = (   0.4166667   0.9166667   0.9166667  )
       216           Ge  tau( 216) = (   0.7500000   0.9166667   0.9166667  )

     number of k points=     1  Gaussian smearing, width (Ry)=  0.0100
                       cart. coord. in units 2pi/alat
        k(    1) = (   0.0000000   0.0000000   0.0000000), wk =   2.0000000

     Initial potential from superposition of free atoms

     starting charge 3023.82226, renormalised to 3024.00000
     Starting wfcs are 1944 randomized atomic wfcs

     Self-consistent Calculation

     iteration #  1     ecut=    60.00 Ry     beta= 0.50
     Davidson diagonalization with overlap
     ethr =  1.00E-02,  avg # of iterations =  5.0

     Threshold (ethr) on eigenvalues was too large:
     Diagonalizing with lowered threshold

     Davidson diagonalization with overlap
     ethr =  1.13E-04,  avg # of iterations =  9.0

     total energy              =  -38579.18901352 Ry
     estimated scf accuracy    <       3.79373497 Ry

[...]

     total energy              =  -38579.22441073 Ry
     estimated scf accuracy    <       0.00000004 Ry

     iteration # 15     ecut=    60.00 Ry     beta= 0.50
     Davidson diagonalization with overlap
     ethr =  1.46E-12,  avg # of iterations =  2.0

     End of self-consistent calculation

          k = 0.0000 0.0000 0.0000 (136605 PWs)   bands (ev):

   -16.0878 -16.0877 -16.0875 -16.0875 -16.0875 -16.0874 -16.0874 -16.0874
   -16.0874 -16.0874 -16.0872 -16.0872 -16.0757 -16.0754 -16.0754 -16.0754
   -16.0753 -16.0753 -16.0753 -16.0753 -16.0753 -16.0752 -16.0752 -16.0752
   -16.0742 -16.0739 -16.0738 -16.0738 -16.0738 -16.0738 -16.0738 -16.0737
   -16.0737 -16.0737 -16.0737 -16.0737 -16.0737 -16.0737 -16.0737 -16.0737
   -16.0737 -16.0736 -16.0736 -16.0736 -16.0736 -16.0736 -16.0735 -16.0734
   -16.0723 -16.0721 -16.0721 -16.0720 -16.0720 -16.0720 -16.0719 -16.0719
   -16.0719 -16.0719 -16.0719 -16.0719 -16.0719 -16.0719 -16.0719 -16.0719
   -16.0719 -16.0719 -16.0719 -16.0718 -16.0718 -16.0718 -16.0718 -16.0716
   -16.0695 -16.0692 -16.0691 -16.0690 -16.0690 -16.0690 -16.0690 -16.0690
   -16.0689 -16.0689 -16.0689 -16.0689 -16.0689 -16.0689 -16.0689 -16.0688
   -16.0688 -16.0688 -16.0688 -16.0688 -16.0688 -16.0688 -16.0688 -16.0688
   -16.0688 -16.0688 -16.0687 -16.0687 -16.0687 -16.0687 -16.0687 -16.0687
   -16.0687 -16.0687 -16.0686 -16.0686 -16.0686 -16.0686 -16.0686 -16.0686
   -16.0686 -16.0686 -16.0686 -16.0685 -16.0685 -16.0684 -16.0683 -16.0680
   -16.0659 -16.0658 -16.0658 -16.0658 -16.0657 -16.0657 -16.0657 -16.0657
   -16.0657 -16.0657 -16.0657 -16.0655 -16.0607 -16.0604 -16.0604 -16.0604
   -16.0603 -16.0603 -16.0603 -16.0603 -16.0603 -16.0603 -16.0602 -16.0602
   -16.0602 -16.0602 -16.0602 -16.0601 -16.0598 -16.0597 -16.0597 -16.0597
   -16.0597 -16.0596 -16.0596 -16.0596 -16.0596 -16.0596 -16.0596 -16.0596
   -16.0596 -16.0596 -16.0595 -16.0595 -16.0595 -16.0595 -16.0595 -16.0595
   -16.0595 -16.0594 -16.0594 -16.0591 -16.0580 -16.0579 -16.0579 -16.0579
   -16.0578 -16.0577 -16.0565 -16.0565 -16.0565 -16.0564 -16.0564 -16.0564
   -16.0564 -16.0564 -16.0563 -16.0563 -16.0563 -16.0561 -16.0539 -16.0538
   -16.0538 -16.0538 -16.0538 -16.0538 -16.0537 -16.0537 -16.0537 -16.0537
   -16.0537 -16.0535 -16.0516 -16.0516 -16.0515 -16.0515 -16.0515 -16.0515
   -16.0515 -16.0515 -16.0515 -16.0514 -16.0514 -16.0512 -16.0485 -16.0485
   -16.0484 -16.0452 -16.0452 -16.0452 -16.0452 -16.0451 -16.0451 -16.0296
   -16.0296 -16.0283 -16.0282 -16.0282 -16.0282 -16.0282 -16.0281 -16.0281
   -16.0281 -16.0281 -16.0281 -16.0280 -16.0280 -16.0273 -16.0273 -16.0273
   -16.0273 -16.0272 -16.0272 -16.0272 -16.0272 -16.0217 -16.0217 -16.0217
   -16.0217 -16.0217 -16.0216 -16.0042 -16.0041 -16.0039 -16.0039 -16.0039
   -16.0039 -16.0039 -16.0039 -16.0039 -16.0038 -16.0038 -16.0038 -16.0038
   -16.0038 -16.0038 -16.0038 -16.0038 -16.0038 -16.0038 -16.0037 -16.0037
   -16.0037 -16.0036 -16.0035 -16.0012 -16.0011 -16.0011 -16.0010 -16.0010
   -16.0010 -16.0010 -16.0010 -16.0010 -16.0010 -16.0010 -16.0009 -16.0009
   -16.0009 -16.0009 -16.0009 -16.0009 -16.0009 -16.0009 -16.0009 -16.0008
   -16.0008 -16.0008 -16.0007 -15.9980 -15.9980 -15.9979 -15.9979 -15.9978
   -15.9978 -15.9940 -15.9940 -15.9940 -15.9939 -15.9939 -15.9939 -15.9939
   -15.9939 -15.9938 -15.9938 -15.9938 -15.9938 -15.9867 -15.9867 -15.9866
   -15.9866 -15.9866 -15.9866 -15.9859 -15.9859 -15.9859 -15.9859 -15.9858
   -15.9858 -15.9858 -15.9858 -15.9857 -15.9857 -15.9857 -15.9857 -15.9813
   -15.9813 -15.9813 -15.9812 -15.9812 -15.9812 -15.9791 -15.9791 -15.9790
   -15.9790 -15.9790 -15.9790 -15.9789 -15.9789 -15.9789 -15.9789 -15.9789
   -15.9789 -15.9788 -15.9788 -15.9787 -15.9787 -15.9688 -15.9688 -15.9687
   -15.9687 -15.9687 -15.9687 -15.9687 -15.9687 -15.9686 -15.9686 -15.9686
   -15.9686 -15.9686 -15.9686 -15.9686 -15.9686 -15.9686 -15.9686 -15.9686
   -15.9686 -15.9685 -15.9685 -15.9685 -15.9685 -15.9682 -15.9682 -15.9681
   -15.9681 -15.9681 -15.9681 -15.9681 -15.9681 -15.9680 -15.9680 -15.9680
   -15.9680 -15.9581 -15.9581 -15.9580 -15.9580 -15.9579 -15.9579 -15.9579
   -15.9579 -15.9579 -15.9579 -15.9579 -15.9579 -15.9579 -15.9579 -15.9579
   -15.9578 -15.9578 -15.9578 -15.9578 -15.9578 -15.9577 -15.9577 -15.9576
   -15.9576 -15.9541 -15.9540 -15.9540 -15.9539 -15.9539 -15.9539 -15.9539
   -15.9539 -15.9538 -15.9538 -15.9538 -15.9538 -15.9538 -15.9538 -15.9538
   -15.9538 -15.9538 -15.9538 -15.9538 -15.9537 -15.9537 -15.9537 -15.9537
   -15.9536 -15.9536 -15.9536 -15.9536 -15.9536 -15.9534 -15.9534 -15.9500
   -15.9500 -15.9500 -15.9500 -15.9500 -15.9499 -15.9499 -15.9499 -15.9499
   -15.9499 -15.9499 -15.9499 -15.9499 -15.9499 -15.9499 -15.9498 -15.9498
   -15.9498 -15.9498 -15.9498 -15.9498 -15.9498 -15.9497 -15.9497 -15.9348
   -15.9348 -15.9347 -15.9347 -15.9347 -15.9347 -15.9347 -15.9347 -15.9347
[...]
    12.4838  12.4841  12.5059  12.5063  12.5072  12.5074  12.5075  12.5075
    12.5076  12.5076  12.5076  12.5076  12.5076  12.5076  12.5077  12.5077
    12.5077  12.5077  12.5077  12.5077  12.5078  12.5078  12.5080  12.5081
    12.5090  12.5094  12.5424  12.5426  12.5436  12.5436  12.5437  12.5437
    12.5437  12.5437  12.5438  12.5438  12.5438  12.5438  12.5439  12.5439
    12.5450  12.5453  13.0926  13.0931  13.0936  13.0936  13.0936  13.0937
    13.0937  13.0937  13.0937  13.0937  13.0942  13.0947  13.1708  13.1714
    13.1714  13.1721  13.1721  13.1722  13.1723  13.1723  13.1723  13.1723
    13.1723  13.1723  13.1724  13.1724  13.1724  13.1724  13.1724  13.1724
    13.1724  13.1726  13.1726  13.1733  13.1733  13.1739  13.6951  13.6954
    13.6966  13.6966  13.6969  13.6970  13.6970  13.6970  13.6970  13.6970
    13.6970  13.6970  13.6970  13.6970  13.6970  13.6970  13.6971  13.6971
    13.6971  13.6971  13.6974  13.6974  13.6986  13.6990  13.8062  13.8064
    13.8066  13.8067  13.8068  13.8069  13.8069  13.8070  13.8070  13.8072
    13.8074  13.8076  14.3448  14.3451  14.3452  14.3457

     the Fermi energy is     8.8535 ev

!    total energy              =  -38579.22441073 Ry
     estimated scf accuracy    <          9.1E-09 Ry
     smearing contrib. (-TS)   =      -0.02021741 Ry
     internal energy E=F+TS    =  -38579.20419332 Ry

     The total energy is F=E-TS. E is the sum of the following terms:
     one-electron contribution =  -20383.38484722 Ry
     hartree contribution      =   12175.48496133 Ry
     xc contribution           =   -9419.61135236 Ry
     ewald contribution        =  -20951.69295507 Ry

     convergence has been achieved in  15 iterations

     Forces acting on atoms (cartesian axes, Ry/au):

     atom    1 type  1   force =    -0.00414769    0.00000000    0.00000000
     atom    2 type  1   force =     0.00001115    0.00000000    0.00000000
     atom    3 type  1   force =     0.00001030    0.00000000    0.00000000
     atom    4 type  1   force =     0.00001263    0.00000290   -0.00000073
     atom    5 type  1   force =     0.00000916    0.00000924    0.00000425
     atom    6 type  1   force =     0.00000985   -0.00000540    0.00000452
     atom    7 type  1   force =     0.00001263   -0.00000290    0.00000073
     atom    8 type  1   force =     0.00000916   -0.00000924   -0.00000425
     atom    9 type  1   force =     0.00000985    0.00000540   -0.00000452
     atom   10 type  1   force =     0.00001263   -0.00000073    0.00000290
     atom   11 type  1   force =     0.00000916    0.00000425    0.00000924
     atom   12 type  1   force =     0.00000985    0.00000452   -0.00000540
     atom   13 type  1   force =    -0.00003158   -0.00000537   -0.00000537
     atom   14 type  1   force =     0.00001113   -0.00000070   -0.00000070
     atom   15 type  1   force =     0.00001345   -0.00000187   -0.00000187
     atom   16 type  1   force =    -0.00003102   -0.00000388    0.00000388
     atom   17 type  1   force =     0.00001114    0.00000106   -0.00000106
     atom   18 type  1   force =     0.00001133    0.00000173   -0.00000173
     atom   19 type  1   force =     0.00001263    0.00000073   -0.00000290
     atom   20 type  1   force =     0.00000916   -0.00000425   -0.00000924
     atom   21 type  1   force =     0.00000985   -0.00000452    0.00000540
     atom   22 type  1   force =    -0.00003102    0.00000388   -0.00000388
     atom   23 type  1   force =     0.00001114   -0.00000106    0.00000106
     atom   24 type  1   force =     0.00001133   -0.00000173    0.00000173
     atom   25 type  1   force =    -0.00003158    0.00000537    0.00000537
     atom   26 type  1   force =     0.00001113    0.00000070    0.00000070
     atom   27 type  1   force =     0.00001345    0.00000187    0.00000187
     atom   28 type  1   force =     0.00102633    0.00072665    0.00072665
     atom   29 type  1   force =    -0.00000948    0.00000058    0.00000058
     atom   30 type  1   force =    -0.00001875    0.00000973    0.00000973
     atom   31 type  1   force =    -0.00001040    0.00000206   -0.00000156
     atom   32 type  1   force =    -0.00000880    0.00000084   -0.00000186
     atom   33 type  1   force =    -0.00000620    0.00000228   -0.00000343
     atom   34 type  1   force =    -0.00002286    0.00000563    0.00002018
     atom   35 type  1   force =    -0.00000805    0.00000017   -0.00000284
     atom   36 type  1   force =    -0.00001158   -0.00000323    0.00001793
     atom   37 type  1   force =    -0.00001040   -0.00000156    0.00000206
     atom   38 type  1   force =    -0.00000880   -0.00000186    0.00000084
     atom   39 type  1   force =    -0.00000620   -0.00000343    0.00000228
     atom   40 type  1   force =     0.00000770   -0.00000108   -0.00000108
     atom   41 type  1   force =    -0.00001348   -0.00000099   -0.00000099
     atom   42 type  1   force =    -0.00001195   -0.00000292   -0.00000292
     atom   43 type  1   force =    -0.00001235   -0.00000066   -0.00000325
     atom   44 type  1   force =    -0.00001136    0.00000160    0.00000197
     atom   45 type  1   force =    -0.00001070    0.00001058    0.00000109
     atom   46 type  1   force =    -0.00002286    0.00002018    0.00000563
     atom   47 type  1   force =    -0.00000805   -0.00000284    0.00000017
     atom   48 type  1   force =    -0.00001158    0.00001793   -0.00000323
     atom   49 type  1   force =    -0.00001235   -0.00000325   -0.00000066
     atom   50 type  1   force =    -0.00001136    0.00000197    0.00000160
     atom   51 type  1   force =    -0.00001070    0.00000109    0.00001058
     atom   52 type  1   force =     0.00004916    0.00001745    0.00001745
     atom   53 type  1   force =    -0.00000979    0.00000141    0.00000141
     atom   54 type  1   force =    -0.00001126   -0.00000155   -0.00000155
     atom   55 type  1   force =     0.00007004    0.00005393    0.00002831
     atom   56 type  1   force =     0.00000911    0.00000191   -0.00000202
     atom   57 type  1   force =     0.00006872   -0.00004832    0.00002776
     atom   58 type  1   force =     0.00000767    0.00000000    0.00000000
     atom   59 type  1   force =     0.00001084    0.00000000    0.00000000
     atom   60 type  1   force =     0.00000780    0.00000000    0.00000000
[...]
     atom  202 type  1   force =     0.00000770    0.00000108    0.00000108
     atom  203 type  1   force =    -0.00001348    0.00000099    0.00000099
     atom  204 type  1   force =    -0.00001195    0.00000292    0.00000292
     atom  205 type  1   force =    -0.00001040    0.00000156   -0.00000206
     atom  206 type  1   force =    -0.00000880    0.00000186   -0.00000084
     atom  207 type  1   force =    -0.00000620    0.00000343   -0.00000228
     atom  208 type  1   force =    -0.00002286   -0.00000563   -0.00002018
     atom  209 type  1   force =    -0.00000805   -0.00000017    0.00000284
     atom  210 type  1   force =    -0.00001158    0.00000323   -0.00001793
     atom  211 type  1   force =    -0.00001040   -0.00000206    0.00000156
     atom  212 type  1   force =    -0.00000880   -0.00000084    0.00000186
     atom  213 type  1   force =    -0.00000620   -0.00000228    0.00000343
     atom  214 type  1   force =     0.00102633   -0.00072665   -0.00072665
     atom  215 type  1   force =    -0.00000948   -0.00000058   -0.00000058
     atom  216 type  1   force =    -0.00001875   -0.00000973   -0.00000973

     Total force =     0.005067     Total SCF correction =     0.000748
     SCF correction compared to forces is large: reduce conv_thr to get better values

     Computing stress (Cartesian axis) and pressure

          total   stress  (Ry/bohr**3)                   (kbar)     P=     -349.66
  -0.00237695   0.00000000   0.00000000         -349.66        0.00        0.00
   0.00000000  -0.00237695   0.00000018            0.00     -349.66        0.03
   0.00000000   0.00000018  -0.00237695            0.00        0.03     -349.66

     Writing output data file ./Ge_out/Ge_scf.save/

     General routines

     Parallel routines

   This run was terminated on:   1: 3:19  15May2025

   JOB DONE.