     Program PWSCF v.7.2 starts on 26Apr2025 at  8:57:21

     Waiting for input...
     Reading input from standard input

     Current dimensions of program PWSCF are:
     Max number of different atomic species (ntypx) = 10
     Max number of k-points (npk) =  40000
     Max angular momentum in pseudopotentials (lmaxx) =  4

     R & G space division:  proc/nbgrp/npool/nimage =       4
     Subspace diagonalization in iterative solution of the eigenvalue problem:
     a serial algorithm will be used

     Using Slab Decomposition

     bravais-lattice index     =            2
     lattice parameter (alat)  =      10.9604  a.u.
     unit-cell volume          =     329.1703 (a.u.)^3
     number of atoms/cell      =            2
     number of atomic types    =            1
     number of electrons       =        28.00
     number of Kohn-Sham states=           18
     kinetic-energy cutoff     =      80.0000  Ry
     charge density cutoff     =     320.0000  Ry
     scf convergence threshold =      1.0E-06
     mixing beta               =       0.4000
     number of iterations used =            8  plain     mixing
     energy convergence thresh.=      1.0E-04
     force convergence thresh. =      1.0E-03
     press convergence thresh. =      5.0E-01
     Exchange-correlation= PBE
                           (   1   4   3   4   0   0   0)
     nstep                     =           50

     celldm(1)=  10.960412  celldm(2)=   0.000000  celldm(3)=   0.000000
     celldm(4)=   0.000000  celldm(5)=   0.000000  celldm(6)=   0.000000

     crystal axes: (cart. coord. in units of alat)
               a(1) = (  -0.500000   0.000000   0.500000 )
               a(2) = (   0.000000   0.500000   0.500000 )
               a(3) = (  -0.500000   0.500000   0.000000 )

     reciprocal axes: (cart. coord. in units 2 pi/alat)
               b(1) = ( -1.000000 -1.000000  1.000000 )
               b(2) = (  1.000000  1.000000  1.000000 )
               b(3) = ( -1.000000  1.000000 -1.000000 )

     PseudoPot. # 1 for Ge read from file:
     ./Ge.upf
     MD5 check sum: 087fa14d6c89b52166990835c3b338da
     Pseudo is Norm-conserving + core correction, Zval = 14.0
     Generated using ONCVPSP code by D. R. Hamann
     Using radial grid of 1560 points,  6 beta functions with:
                l(1) =   0
                l(2) =   0
                l(3) =   1
                l(4) =   1
                l(5) =   2
                l(6) =   2

     atomic species   valence    mass     pseudopotential
        Ge            14.00    72.63000     Ge( 1.00)

     48 Sym. Ops., with inversion, found (24 have fractional translation)

   Cartesian axes

     site n.     atom                  positions (alat units)
         1           Ge  tau(   1) = (   0.0000000   0.0000000   0.0000000  )
         2           Ge  tau(   2) = (   0.2500000   0.2500000   0.2500000  )

     number of k points=    29  Gaussian smearing, width (Ry)=  0.0100
                       cart. coord. in units 2pi/alat
        k(    1) = (   0.0000000   0.0000000   0.0000000), wk =   0.0039062
        k(    2) = (  -0.1250000   0.1250000  -0.1250000), wk =   0.0312500
        k(    3) = (  -0.2500000   0.2500000  -0.2500000), wk =   0.0312500
        k(    4) = (  -0.3750000   0.3750000  -0.3750000), wk =   0.0312500
        k(    5) = (   0.5000000  -0.5000000   0.5000000), wk =   0.0156250
        k(    6) = (   0.0000000   0.2500000   0.0000000), wk =   0.0234375
        k(    7) = (  -0.1250000   0.3750000  -0.1250000), wk =   0.0937500
        k(    8) = (  -0.2500000   0.5000000  -0.2500000), wk =   0.0937500
        k(    9) = (   0.6250000  -0.3750000   0.6250000), wk =   0.0937500
        k(   10) = (   0.5000000  -0.2500000   0.5000000), wk =   0.0937500
        k(   11) = (   0.3750000  -0.1250000   0.3750000), wk =   0.0937500
        k(   12) = (   0.2500000   0.0000000   0.2500000), wk =   0.0468750
        k(   13) = (   0.0000000   0.5000000   0.0000000), wk =   0.0234375
        k(   14) = (  -0.1250000   0.6250000  -0.1250000), wk =   0.0937500
        k(   15) = (   0.7500000  -0.2500000   0.7500000), wk =   0.0937500
        k(   16) = (   0.6250000  -0.1250000   0.6250000), wk =   0.0937500
        k(   17) = (   0.5000000   0.0000000   0.5000000), wk =   0.0468750
        k(   18) = (   0.0000000   0.7500000   0.0000000), wk =   0.0234375
        k(   19) = (   0.8750000  -0.1250000   0.8750000), wk =   0.0937500
        k(   20) = (   0.7500000   0.0000000   0.7500000), wk =   0.0468750
        k(   21) = (   0.0000000  -1.0000000   0.0000000), wk =   0.0117188
        k(   22) = (  -0.2500000   0.5000000   0.0000000), wk =   0.0937500
        k(   23) = (   0.6250000  -0.3750000   0.8750000), wk =   0.1875000
        k(   24) = (   0.5000000  -0.2500000   0.7500000), wk =   0.0937500
        k(   25) = (   0.7500000  -0.2500000   1.0000000), wk =   0.0937500
        k(   26) = (   0.6250000  -0.1250000   0.8750000), wk =   0.1875000
        k(   27) = (   0.5000000   0.0000000   0.7500000), wk =   0.0937500
        k(   28) = (  -0.2500000  -1.0000000   0.0000000), wk =   0.0468750
        k(   29) = (  -0.5000000  -1.0000000   0.0000000), wk =   0.0234375

     Initial potential from superposition of free atoms

     starting charge      27.9984, renormalised to      28.0000
     Starting wfcs are   18 randomized atomic wfcs

     Self-consistent Calculation

     iteration #  1     ecut=    80.00 Ry     beta= 0.40
     Davidson diagonalization with overlap
     ethr =  1.00E-02,  avg # of iterations =  3.7

     Threshold (ethr) on eigenvalues was too large:
     Diagonalizing with lowered threshold

     Davidson diagonalization with overlap
     ethr =  9.99E-05,  avg # of iterations =  3.9

     total energy              =    -357.28526038 Ry
     estimated scf accuracy    <       0.03026339 Ry

[...]

     End of self-consistent calculation

          k = 0.0000 0.0000 0.0000 (  3943 PWs)   bands (ev):

   -16.2238 -16.2238 -16.2238 -16.1950 -16.1950 -16.0203 -16.0203 -16.0203
   -16.0144 -16.0144  -3.6946   7.9034   8.5324   8.5324   8.5324  11.0502
    11.0502  11.0502

          k =-0.1250 0.1250-0.1250 (  3945 PWs)   bands (ev):

[...]

     the Fermi energy is     8.4529 ev

!    total energy              =    -357.28467357 Ry
     estimated scf accuracy    <       0.00000087 Ry
     smearing contrib. (-TS)   =      -0.00009551 Ry
     internal energy E=F+TS    =    -357.28457806 Ry

     The total energy is F=E-TS. E is the sum of the following terms:
     one-electron contribution =    -191.06005737 Ry
     hartree contribution      =     113.67863476 Ry
     xc contribution           =     -87.24388998 Ry
     ewald contribution        =    -192.65926548 Ry

     convergence has been achieved in   5 iterations

     Forces acting on atoms (cartesian axes, Ry/au):

     atom    1 type  1   force =    -0.00000000   -0.00000000   -0.00000000
     atom    2 type  1   force =     0.00000000    0.00000000    0.00000000
     The non-local contrib.  to forces
     atom    1 type  1   force =     0.00000000   -0.00000000   -0.00000000
     atom    2 type  1   force =    -0.00000000    0.00000000    0.00000000
     The ionic contribution  to forces
     atom    1 type  1   force =     0.00000000    0.00000000    0.00000000
     atom    2 type  1   force =    -0.00000000   -0.00000000   -0.00000000
     The local contribution  to forces
     atom    1 type  1   force =    -0.00000000    0.00000000    0.00000000
     atom    2 type  1   force =     0.00000000   -0.00000000   -0.00000000
     The core correction contribution to forces
     atom    1 type  1   force =    -0.00000000    0.00000000    0.00000000
     atom    2 type  1   force =     0.00000000   -0.00000000    0.00000000
     The Hubbard contrib.    to forces
     atom    1 type  1   force =     0.00000000    0.00000000    0.00000000
     atom    2 type  1   force =     0.00000000    0.00000000    0.00000000
     The SCF correction term to forces
     atom    1 type  1   force =    -0.00000000    0.00000000    0.00000000
     atom    2 type  1   force =     0.00000000    0.00000000   -0.00000000

     Total force =     0.000000     Total SCF correction =     0.000000

     Computing stress (Cartesian axis) and pressure

          total   stress  (Ry/bohr**3)                   (kbar)     P=      -13.98
  -0.00009503  -0.00000000  -0.00000000          -13.98       -0.00       -0.00
  -0.00000000  -0.00009503   0.00000000           -0.00      -13.98        0.00
  -0.00000000   0.00000000  -0.00009503           -0.00        0.00      -13.98

     BFGS Geometry Optimization
     Energy error            =      0.0E+00 Ry
     Gradient error          =      5.3E-31 Ry/Bohr
     Cell gradient error     =      1.4E+01 kbar

     number of scf cycles    =   1
     number of bfgs steps    =   0

     enthalpy           new  =    -357.2846735721 Ry

     new trust radius        =       0.0086207844 bohr
     new conv_thr            =       0.0000010000 Ry

     new unit-cell volume =    326.82972 a.u.^3 (    48.43117 Ang^3 )
     density =      4.98047 g/cm^3

CELL_PARAMETERS (alat= 10.96041152)
  -0.498812109   0.000000000   0.498812109
  -0.000000000   0.498812109   0.498812109
  -0.498812109   0.498812109   0.000000000

ATOMIC_POSITIONS (alat)
Ge           -0.0000000000       -0.0000000000       -0.0000000000
Ge            0.2494060546        0.2494060546        0.2494060546

     Writing config-only to output data dir ./Ge_out/Ge_scf.save/
     NEW-OLD atomic charge density approx. for the potential
     extrapolated charge   27.79949, renormalised to   28.00000

[...]

     Energy error            =      1.3E-04 Ry
     Gradient error          =      1.6E-31 Ry/Bohr
     Cell gradient error     =      6.9E+00 kbar

[...]

     enthalpy           old  =    -357.2846735721 Ry
     enthalpy           new  =    -357.2848073361 Ry

     CASE: enthalpy          _new < enthalpy          _old

[...]

     number of scf cycles    =   3
     number of bfgs steps    =   2

     enthalpy           old  =    -357.2848073361 Ry
     enthalpy           new  =    -357.2848755131 Ry

     CASE: enthalpy          _new < enthalpy          _old

     new trust radius        =       0.0058029917 bohr
     new conv_thr            =       0.0000000100 Ry

     new unit-cell volume =    323.04338 a.u.^3 (    47.87009 Ang^3 )
     density =      5.03884 g/cm^3

[...]

ATOMIC_POSITIONS (alat)
Ge           -0.0000000000        0.0000000000        0.0000000000
Ge            0.2484391829        0.2484391829        0.2484391829

     Writing config-only to output data dir ./Ge_out/Ge_scf.save/
     NEW-OLD atomic charge density approx. for the potential
     extrapolated charge   27.86430, renormalised to   28.00000

[...]

     Energy error            =      1.2E-05 Ry
     Gradient error          =      3.4E-30 Ry/Bohr
     Cell gradient error     =      5.5E-02 kbar

     bfgs converged in   4 scf cycles and   3 bfgs steps
     (criteria: energy <  1.0E-04 Ry, force <  1.0E-03 Ry/Bohr, cell <  5.0E-01 kbar)

     End of BFGS Geometry Optimization

     Final enthalpy           =    -357.2848876773 Ry

     File ./Ge_out/Ge_scf.bfgs deleted, as requested
Begin final coordinates
     new unit-cell volume =    323.04338 a.u.^3 (    47.87009 Ang^3 )
     density =      5.03884 g/cm^3

CELL_PARAMETERS (alat= 10.96041152)
  -0.496878366   0.000000000   0.496878366
   0.000000000   0.496878366   0.496878366
  -0.496878366   0.496878366   0.000000000

ATOMIC_POSITIONS (alat)
Ge           -0.0000000000        0.0000000000        0.0000000000
Ge            0.2484391829        0.2484391829        0.2484391829
End final coordinates

     Writing config-only to output data dir ./Ge_out/Ge_scf.save/

     Final scf calculation at the relaxed structure.
     The G-vectors are recalculated for the final unit cell
     Results may differ from those at the preceding step.

     Using Slab Decomposition

     bravais-lattice index     =            2
     lattice parameter (alat)  =      10.9604  a.u.
     unit-cell volume          =     323.0434 (a.u.)^3
     number of atoms/cell      =            2
     number of atomic types    =            1
     number of electrons       =        28.00
     number of Kohn-Sham states=           18
     kinetic-energy cutoff     =      80.0000  Ry
     charge density cutoff     =     320.0000  Ry
     scf convergence threshold =      1.0E-08
     mixing beta               =       0.4000
     number of iterations used =            8  plain     mixing
     press convergence thresh. =      5.0E-01
     Exchange-correlation= PBE
                           (   1   4   3   4   0   0   0)

     celldm(1)=  10.960412  celldm(2)=   0.000000  celldm(3)=   0.000000
     celldm(4)=   0.000000  celldm(5)=   0.000000  celldm(6)=   0.000000

     crystal axes: (cart. coord. in units of alat)
               a(1) = (  -0.496878   0.000000   0.496878 )
               a(2) = (   0.000000   0.496878   0.496878 )
               a(3) = (  -0.496878   0.496878   0.000000 )

     reciprocal axes: (cart. coord. in units 2 pi/alat)
               b(1) = ( -1.006282 -1.006282  1.006282 )
               b(2) = (  1.006282  1.006282  1.006282 )
               b(3) = ( -1.006282  1.006282 -1.006282 )

     PseudoPot. # 1 for Ge read from file:
     ./Ge.upf
     MD5 check sum: 087fa14d6c89b52166990835c3b338da
     Pseudo is Norm-conserving + core correction, Zval = 14.0
     Generated using ONCVPSP code by D. R. Hamann
     Using radial grid of 1560 points,  6 beta functions with:
                l(1) =   0
                l(2) =   0
                l(3) =   1
                l(4) =   1
                l(5) =   2
                l(6) =   2

     atomic species   valence    mass     pseudopotential
        Ge            14.00    72.63000     Ge( 1.00)

     48 Sym. Ops., with inversion, found (24 have fractional translation)

   Cartesian axes

     site n.     atom                  positions (alat units)
         1           Ge  tau(   1) = (  -0.0000000   0.0000000   0.0000000  )
         2           Ge  tau(   2) = (   0.2484392   0.2484392   0.2484392  )

     number of k points=    29  Gaussian smearing, width (Ry)=  0.0100
                       cart. coord. in units 2pi/alat
        k(    1) = (   0.0000000   0.0000000   0.0000000), wk =   0.0039062
        k(    2) = (  -0.1257853   0.1257853  -0.1257853), wk =   0.0312500
        k(    3) = (  -0.2515706   0.2515706  -0.2515706), wk =   0.0312500
        k(    4) = (  -0.3773559   0.3773559  -0.3773559), wk =   0.0312500
        k(    5) = (   0.5031412  -0.5031412   0.5031412), wk =   0.0156250
        k(    6) = (   0.0000000   0.2515706   0.0000000), wk =   0.0234375
        k(    7) = (  -0.1257853   0.3773559  -0.1257853), wk =   0.0937500
        k(    8) = (  -0.2515706   0.5031412  -0.2515706), wk =   0.0937500
        k(    9) = (   0.6289266  -0.3773559   0.6289266), wk =   0.0937500
        k(   10) = (   0.5031412  -0.2515706   0.5031412), wk =   0.0937500
        k(   11) = (   0.3773559  -0.1257853   0.3773559), wk =   0.0937500
        k(   12) = (   0.2515706   0.0000000   0.2515706), wk =   0.0468750
        k(   13) = (   0.0000000   0.5031412   0.0000000), wk =   0.0234375
        k(   14) = (  -0.1257853   0.6289266  -0.1257853), wk =   0.0937500
        k(   15) = (   0.7547119  -0.2515706   0.7547119), wk =   0.0937500
        k(   16) = (   0.6289266  -0.1257853   0.6289266), wk =   0.0937500
        k(   17) = (   0.5031412   0.0000000   0.5031412), wk =   0.0468750
        k(   18) = (   0.0000000   0.7547119   0.0000000), wk =   0.0234375
        k(   19) = (   0.8804972  -0.1257853   0.8804972), wk =   0.0937500
        k(   20) = (   0.7547119   0.0000000   0.7547119), wk =   0.0468750
        k(   21) = (   0.0000000  -1.0062825   0.0000000), wk =   0.0117188
        k(   22) = (  -0.2515706   0.5031412  -0.0000000), wk =   0.0937500
        k(   23) = (   0.6289266  -0.3773559   0.8804972), wk =   0.1875000
        k(   24) = (   0.5031412  -0.2515706   0.7547119), wk =   0.0937500
        k(   25) = (   0.7547119  -0.2515706   1.0062825), wk =   0.0937500
        k(   26) = (   0.6289266  -0.1257853   0.8804972), wk =   0.1875000
        k(   27) = (   0.5031412  -0.0000000   0.7547119), wk =   0.0937500
        k(   28) = (  -0.2515706  -1.0062825  -0.0000000), wk =   0.0468750
        k(   29) = (  -0.5031412  -1.0062825   0.0000000), wk =   0.0234375

     Initial potential from superposition of free atoms

     starting charge      27.9984, renormalised to      28.0000
     Starting wfcs are   18 randomized atomic wfcs

     Self-consistent Calculation

[...]

     total energy              =    -357.28488648 Ry
     estimated scf accuracy    <       0.00000010 Ry

     iteration #  8     ecut=    80.00 Ry     beta= 0.40
     Davidson diagonalization with overlap
     ethr =  3.45E-10,  avg # of iterations =  2.0

     End of self-consistent calculation

[...]

          k = 0.5031-0.0000 0.7547 (  3910 PWs)   bands (ev):

[...]

          k =-0.5031-1.0063 0.0000 (  3884 PWs)   bands (ev):

   -16.0431 -16.0431 -15.9206 -15.9206 -15.8801 -15.8801 -15.8525 -15.8525
   -15.7322 -15.7322   0.1794   0.1794   5.1373   5.1373  12.8843  12.8843
    13.4602  13.4602

     the Fermi energy is     8.7332 ev

!    total energy              =    -357.28488650 Ry
     estimated scf accuracy    <          2.3E-09 Ry
     smearing contrib. (-TS)   =      -0.00008031 Ry
     internal energy E=F+TS    =    -357.28480619 Ry

     The total energy is F=E-TS. E is the sum of the following terms:
     one-electron contribution =    -189.09143032 Ry
     hartree contribution      =     112.94008446 Ry
     xc contribution           =     -87.26381462 Ry
     ewald contribution        =    -193.86964571 Ry

     convergence has been achieved in   8 iterations

     Forces acting on atoms (cartesian axes, Ry/au):

     atom    1 type  1   force =    -0.00000000   -0.00000000    0.00000000
     atom    2 type  1   force =     0.00000000    0.00000000   -0.00000000
     The non-local contrib.  to forces
     atom    1 type  1   force =    -0.00000000    0.00000000   -0.00000000
     atom    2 type  1   force =    -0.00000000    0.00000000    0.00000000
     The ionic contribution  to forces
     atom    1 type  1   force =    -0.00000000   -0.00000000   -0.00000000
     atom    2 type  1   force =     0.00000000    0.00000000    0.00000000
     The local contribution  to forces
     atom    1 type  1   force =    -0.00000000    0.00000000   -0.00000000
     atom    2 type  1   force =     0.00000000    0.00000000    0.00000000
     The core correction contribution to forces
     atom    1 type  1   force =     0.00000000   -0.00000000    0.00000000
     atom    2 type  1   force =    -0.00000000    0.00000000    0.00000000
     The Hubbard contrib.    to forces
     atom    1 type  1   force =     0.00000000    0.00000000    0.00000000
     atom    2 type  1   force =     0.00000000    0.00000000    0.00000000
     The SCF correction term to forces
     atom    1 type  1   force =    -0.00000000    0.00000000    0.00000000
     atom    2 type  1   force =    -0.00000000   -0.00000000   -0.00000000

     Total force =     0.000000     Total SCF correction =     0.000000

     Computing stress (Cartesian axis) and pressure

          total   stress  (Ry/bohr**3)                   (kbar)     P=        0.45
   0.00000308  -0.00000000  -0.00000000            0.45       -0.00       -0.00
  -0.00000000   0.00000308   0.00000000           -0.00        0.45        0.00
   0.00000000   0.00000000   0.00000308            0.00        0.00        0.45

     Writing all to output data dir ./Ge_out/Ge_scf.save/

     General routines

     Parallel routines

   This run was terminated on:   9: 0:41  26Apr2025

   JOB DONE.