     Program PWSCF v.7.2 starts on 26Apr2025 at 19: 3: 8

     Waiting for input...
     Reading input from standard input

     Current dimensions of program PWSCF are:
     Max number of different atomic species (ntypx) = 10
     Max number of k-points (npk) =  40000
     Max angular momentum in pseudopotentials (lmaxx) =  4

     File ./Ge_out/Ge_scf.update deleted, as requested

     File ./Ge_out/Ge_scf.bfgs deleted, as requested

     K-points division:     npool     =       2
     R & G space division:  proc/nbgrp/npool/nimage =       8
     Subspace diagonalization in iterative solution of the eigenvalue problem:
     a serial algorithm will be used

     Using Slab Decomposition

     bravais-lattice index     =            7
     lattice parameter (alat)  =       9.8266  a.u.
     unit-cell volume          =     260.9395 (a.u.)^3
     number of atoms/cell      =            2
     number of atomic types    =            1
     number of electrons       =        28.00
     number of Kohn-Sham states=           18
     kinetic-energy cutoff     =      80.0000  Ry
     charge density cutoff     =     320.0000  Ry
     scf convergence threshold =      1.0E-06
     mixing beta               =       0.4000
     number of iterations used =            8  plain     mixing
     energy convergence thresh.=      1.0E-04
     force convergence thresh. =      1.0E-03
     press convergence thresh. =      5.0E-01
     Exchange-correlation= PBE
                           (   1   4   3   4   0   0   0)
     nstep                     =           50

     celldm(1)=   9.826580  celldm(2)=   0.000000  celldm(3)=   0.550000
     celldm(4)=   0.000000  celldm(5)=   0.000000  celldm(6)=   0.000000

     crystal axes: (cart. coord. in units of alat)
               a(1) = (   0.500000  -0.500000   0.275000 )
               a(2) = (   0.500000   0.500000   0.275000 )
               a(3) = (  -0.500000  -0.500000   0.275000 )

     reciprocal axes: (cart. coord. in units 2 pi/alat)
               b(1) = (  1.000000 -1.000000  0.000000 )
               b(2) = (  0.000000  1.000000  1.818182 )
               b(3) = ( -1.000000  0.000000  1.818182 )

     PseudoPot. # 1 for Ge read from file:
     ./Ge.upf
     MD5 check sum: 087fa14d6c89b52166990835c3b338da
     Pseudo is Norm-conserving + core correction, Zval = 14.0
     Generated using ONCVPSP code by D. R. Hamann
     Using radial grid of 1560 points,  6 beta functions with:
                l(1) =   0
                l(2) =   0
                l(3) =   1
                l(4) =   1
                l(5) =   2
                l(6) =   2

     atomic species   valence    mass     pseudopotential
        Ge            14.00    72.63000     Ge( 1.00)

     16 Sym. Ops., with inversion, found ( 8 have fractional translation)

   Cartesian axes

     site n.     atom                  positions (alat units)
         1           Ge  tau(   1) = (   0.0000000   0.0000000   0.0000000  )
         2           Ge  tau(   2) = (   0.0000000   0.5000000   0.1375000  )

     number of k points=    30  Gaussian smearing, width (Ry)=  0.0100
                       cart. coord. in units 2pi/alat
        k(    1) = (   0.0000000   0.0000000   0.0000000), wk =   0.0092593
        k(    2) = (  -0.1666667   0.0000000   0.3030303), wk =   0.0740741
        k(    3) = (  -0.3333333   0.0000000   0.6060606), wk =   0.0740741
        k(    4) = (   0.5000000   0.0000000  -0.9090909), wk =   0.0370370
        k(    5) = (  -0.1666667   0.1666667   0.6060606), wk =   0.0740741
        k(    6) = (  -0.3333333   0.1666667   0.9090909), wk =   0.1481481
        k(    7) = (   0.5000000   0.1666667  -0.6060606), wk =   0.1481481
        k(    8) = (   0.3333333   0.1666667  -0.3030303), wk =   0.1481481
        k(    9) = (   0.1666667   0.1666667   0.0000000), wk =   0.0370370
        k(   10) = (  -0.3333333   0.3333333   1.2121212), wk =   0.0740741
        k(   11) = (   0.5000000   0.3333333  -0.3030303), wk =   0.1481481
        k(   12) = (   0.3333333   0.3333333  -0.0000000), wk =   0.0370370
        k(   13) = (   0.5000000  -0.5000000  -1.8181818), wk =   0.0185185
        k(   14) = (   0.0000000   0.0000000   0.6060606), wk =   0.0185185
        k(   15) = (  -0.1666667   0.0000000   0.9090909), wk =   0.0740741
        k(   16) = (   0.6666667   0.0000000  -0.6060606), wk =   0.0740741
        k(   17) = (   0.5000000   0.0000000  -0.3030303), wk =   0.0740741
        k(   18) = (   0.3333333   0.0000000   0.0000000), wk =   0.0370370
        k(   19) = (  -0.1666667   0.1666667   1.2121212), wk =   0.0740741
        k(   20) = (   0.6666667   0.1666667  -0.3030303), wk =   0.1481481
        k(   21) = (   0.5000000   0.1666667  -0.0000000), wk =   0.0740741
        k(   22) = (   0.6666667  -0.6666667  -1.8181818), wk =   0.0370370
        k(   23) = (   0.3333333  -0.6666667  -1.2121212), wk =   0.0740741
        k(   24) = (   0.5000000  -0.5000000  -1.2121212), wk =   0.0370370
        k(   25) = (   0.3333333  -0.5000000  -0.9090909), wk =   0.0740741
        k(   26) = (   0.0000000   0.0000000   1.2121212), wk =   0.0185185
        k(   27) = (   0.8333333   0.0000000  -0.3030303), wk =   0.0740741
        k(   28) = (   0.6666667   0.0000000  -0.0000000), wk =   0.0370370
        k(   29) = (   0.8333333  -0.8333333  -1.8181818), wk =   0.0370370
        k(   30) = (   0.0000000   0.0000000  -1.8181818), wk =   0.0092593

     Initial potential from superposition of free atoms

     starting charge      27.9984, renormalised to      28.0000
     Starting wfcs are   18 randomized atomic wfcs

     Self-consistent Calculation

     iteration #  1     ecut=    80.00 Ry     beta= 0.40
     Davidson diagonalization with overlap
     ethr =  1.00E-02,  avg # of iterations =  3.4

     Threshold (ethr) on eigenvalues was too large:
     Diagonalizing with lowered threshold

     Davidson diagonalization with overlap
     ethr =  2.83E-05,  avg # of iterations =  5.1

     total energy              =    -357.25062232 Ry
     estimated scf accuracy    <       0.00810358 Ry

[...]

     End of self-consistent calculation

          k = 0.0000 0.0000 0.0000 (  3147 PWs)   bands (ev):

   -13.0629 -13.0335 -13.0042 -12.9968 -12.9179 -12.9179 -12.9116 -12.9116
   -12.8413 -12.7777  -1.2639   7.6199   9.5264   9.5264  15.1107  19.1230
    19.1230  19.2666

          k =-0.1667 0.0000 0.3030 (  3156 PWs)   bands (ev):

[...]

     the Fermi energy is    11.8711 ev

!    total energy              =    -357.25097468 Ry
     estimated scf accuracy    <       0.00000028 Ry
     smearing contrib. (-TS)   =      -0.00067836 Ry
     internal energy E=F+TS    =    -357.25029632 Ry

     The total energy is F=E-TS. E is the sum of the following terms:
     one-electron contribution =    -141.09867203 Ry
     hartree contribution      =      92.01238094 Ry
     xc contribution           =     -87.25726920 Ry
     ewald contribution        =    -220.90673603 Ry

     convergence has been achieved in   5 iterations

     Forces acting on atoms (cartesian axes, Ry/au):

     atom    1 type  1   force =     0.00000000    0.00000000    0.00000000
     atom    2 type  1   force =     0.00000000    0.00000000    0.00000000
     The non-local contrib.  to forces
     atom    1 type  1   force =     0.00000000    0.00000000    0.00000000
     atom    2 type  1   force =     0.00000000    0.00000000    0.00000000
     The ionic contribution  to forces
     atom    1 type  1   force =    -0.00000000   -0.00000000   -0.00000000
     atom    2 type  1   force =     0.00000000    0.00000000    0.00000000
     The local contribution  to forces
     atom    1 type  1   force =     0.00000000    0.00000000   -0.00000000
     atom    2 type  1   force =    -0.00000000    0.00000000    0.00000000
     The core correction contribution to forces
     atom    1 type  1   force =    -0.00000000   -0.00000000   -0.00000000
     atom    2 type  1   force =     0.00000000    0.00000000   -0.00000000
     The Hubbard contrib.    to forces
     atom    1 type  1   force =     0.00000000    0.00000000    0.00000000
     atom    2 type  1   force =     0.00000000    0.00000000    0.00000000
     The SCF correction term to forces
     atom    1 type  1   force =    -0.00000000    0.00000000    0.00000000
     atom    2 type  1   force =     0.00000000   -0.00000000   -0.00000000

     Total force =     0.000000     Total SCF correction =     0.000000

     Computing stress (Cartesian axis) and pressure

          total   stress  (Ry/bohr**3)                   (kbar)     P=       -2.72
   0.00004628   0.00000000   0.00000000            6.81        0.00        0.00
   0.00000000   0.00004628   0.00000000            0.00        6.81        0.00
   0.00000000   0.00000000  -0.00014801            0.00        0.00      -21.77

     BFGS Geometry Optimization
     Energy error            =      0.0E+00 Ry
     Gradient error          =      0.0E+00 Ry/Bohr
     Cell gradient error     =      2.2E+01 kbar

     number of scf cycles    =   1
     number of bfgs steps    =   0

     enthalpy           new  =    -357.2509746801 Ry

     new trust radius        =       0.0119543216 bohr
ibrav =      7
 celldm(1) =      9.83794879
 celldm(3) =      0.54733166
Input lattice vectors:
     0.50057847    -0.50057847     0.27398245
     0.50057847     0.50057847     0.27398245
    -0.50057847    -0.50057847     0.27398245
New lattice vectors in INITIAL alat:
     0.50057847    -0.50057847     0.27398245
     0.50057847     0.50057847     0.27398245
    -0.50057847    -0.50057847     0.27398245
New lattice vectors in NEW alat (for information only):
     0.50000000    -0.50000000     0.27366583
     0.50000000     0.50000000     0.27366583
    -0.50000000    -0.50000000     0.27366583
Discrepancy in bohr =     0.000000    0.000000    0.000000

Atomic positions rescaled with new alat:
Ge            0.0000000000        0.0000000000        0.0000000000
Ge            0.0000000000        0.5000000000        0.1368329149
     new conv_thr            =       0.0000010000 Ry

     new unit-cell volume =    260.57590 a.u.^3 (    38.61336 Ang^3 )
     density =      6.24680 g/cm^3

CELL_PARAMETERS (alat=  9.82658000)
   0.500578471  -0.500578471   0.273982445
   0.500578471   0.500578471   0.273982445
  -0.500578471  -0.500578471   0.273982445

ATOMIC_POSITIONS (alat)
Ge            0.0000000000        0.0000000000        0.0000000000
Ge            0.0000000000        0.5005784713        0.1369912227

     Writing config-only to output data dir ./Ge_out/Ge_scf.save/
     NEW-OLD atomic charge density approx. for the potential
     extrapolated charge   27.96093, renormalised to   28.00000

[...]

     Energy error            =      1.5E-04 Ry
     Gradient error          =      4.5E-32 Ry/Bohr
     Cell gradient error     =      1.4E+01 kbar

[...]

     enthalpy           old  =    -357.2509746801 Ry
     enthalpy           new  =    -357.2511207995 Ry

     CASE: enthalpy          _new < enthalpy          _old

[...]

     Energy error            =      1.0E-05 Ry
     Gradient error          =      1.8E-31 Ry/Bohr
     Cell gradient error     =      1.0E+00 kbar

     number of scf cycles    =   5
     number of bfgs steps    =   4

     enthalpy           old  =    -357.2513635602 Ry
     enthalpy           new  =    -357.2513737016 Ry

     CASE: enthalpy          _new < enthalpy          _old

     new trust radius        =       0.0012795082 bohr
ibrav =      7
 celldm(1) =      9.89762440
 celldm(3) =      0.53682142
Input lattice vectors:
     0.50361491    -0.50361491     0.27035127
     0.50361491     0.50361491     0.27035127
    -0.50361491    -0.50361491     0.27035127
New lattice vectors in INITIAL alat:
     0.50361491    -0.50361491     0.27035127
     0.50361491     0.50361491     0.27035127
    -0.50361491    -0.50361491     0.27035127
New lattice vectors in NEW alat (for information only):
     0.50000000    -0.50000000     0.26841071
     0.50000000     0.50000000     0.26841071
    -0.50000000    -0.50000000     0.26841071
Discrepancy in bohr =     0.000000    0.000000    0.000000

Atomic positions rescaled with new alat:
Ge            0.0000000000        0.0000000000        0.0000000000
Ge            0.0000000000        0.5000000000        0.1342053549
     new conv_thr            =       0.0000000100 Ry

     new unit-cell volume =    260.25120 a.u.^3 (    38.56525 Ang^3 )
     density =      6.25459 g/cm^3

[...]

ATOMIC_POSITIONS (alat)
Ge            0.0000000000        0.0000000000        0.0000000000
Ge            0.0000000000        0.5036149096        0.1351756353

     Writing config-only to output data dir ./Ge_out/Ge_scf.save/
     NEW-OLD atomic charge density approx. for the potential
     extrapolated charge   27.98793, renormalised to   28.00000

[...]

     Threshold (ethr) on eigenvalues was too large:
     Diagonalizing with lowered threshold

     Davidson diagonalization with overlap
     ethr =  2.81E-08,  avg # of iterations =  2.0

[...]

     Energy error            =      3.9E-07 Ry
     Gradient error          =      2.6E-30 Ry/Bohr
     Cell gradient error     =      4.3E-01 kbar
ibrav =      7
 celldm(1) =      9.89762440
 celldm(3) =      0.53682142
Input lattice vectors:
     0.50361491    -0.50361491     0.27035127
     0.50361491     0.50361491     0.27035127
    -0.50361491    -0.50361491     0.27035127
New lattice vectors in INITIAL alat:
     0.50361491    -0.50361491     0.27035127
     0.50361491     0.50361491     0.27035127
    -0.50361491    -0.50361491     0.27035127
New lattice vectors in NEW alat (for information only):
     0.50000000    -0.50000000     0.26841071
     0.50000000     0.50000000     0.26841071
    -0.50000000    -0.50000000     0.26841071
Discrepancy in bohr =     0.000000    0.000000    0.000000

Atomic positions rescaled with new alat:
Ge            0.0000000000        0.0000000000        0.0000000000
Ge            0.0000000000        0.5000000000        0.1342053549

     bfgs converged in   6 scf cycles and   5 bfgs steps
     (criteria: energy <  1.0E-04 Ry, force <  1.0E-03 Ry/Bohr, cell <  5.0E-01 kbar)

     End of BFGS Geometry Optimization

     Final enthalpy           =    -357.2513740892 Ry

     File ./Ge_out/Ge_scf.bfgs deleted, as requested
Begin final coordinates
     new unit-cell volume =    260.25120 a.u.^3 (    38.56525 Ang^3 )
     density =      6.25459 g/cm^3

CELL_PARAMETERS (alat=  9.82658000)
   0.503614910  -0.503614910   0.270351271
   0.503614910   0.503614910   0.270351271
  -0.503614910  -0.503614910   0.270351271

ATOMIC_POSITIONS (alat)
Ge            0.0000000000        0.0000000000        0.0000000000
Ge            0.0000000000        0.5036149096        0.1351756353
End final coordinates

     Writing config-only to output data dir ./Ge_out/Ge_scf.save/

     Final scf calculation at the relaxed structure.
     The G-vectors are recalculated for the final unit cell
     Results may differ from those at the preceding step.

     Using Slab Decomposition

     bravais-lattice index     =            7
     lattice parameter (alat)  =       9.8266  a.u.
     unit-cell volume          =     260.2512 (a.u.)^3
     number of atoms/cell      =            2
     number of atomic types    =            1
     number of electrons       =        28.00
     number of Kohn-Sham states=           18
     kinetic-energy cutoff     =      80.0000  Ry
     charge density cutoff     =     320.0000  Ry
     scf convergence threshold =      1.0E-08
     mixing beta               =       0.4000
     number of iterations used =            8  plain     mixing
     press convergence thresh. =      5.0E-01
     Exchange-correlation= PBE
                           (   1   4   3   4   0   0   0)

     celldm(1)=   9.826580  celldm(2)=   0.000000  celldm(3)=   0.550000
     celldm(4)=   0.000000  celldm(5)=   0.000000  celldm(6)=   0.000000

     crystal axes: (cart. coord. in units of alat)
               a(1) = (   0.503615  -0.503615   0.270351 )
               a(2) = (   0.503615   0.503615   0.270351 )
               a(3) = (  -0.503615  -0.503615   0.270351 )

     reciprocal axes: (cart. coord. in units 2 pi/alat)
               b(1) = (  0.992822 -0.992822  0.000000 )
               b(2) = (  0.000000  0.992822  1.849446 )
               b(3) = ( -0.992822  0.000000  1.849446 )

     PseudoPot. # 1 for Ge read from file:
     ./Ge.upf
     MD5 check sum: 087fa14d6c89b52166990835c3b338da
     Pseudo is Norm-conserving + core correction, Zval = 14.0
     Generated using ONCVPSP code by D. R. Hamann
     Using radial grid of 1560 points,  6 beta functions with:
                l(1) =   0
                l(2) =   0
                l(3) =   1
                l(4) =   1
                l(5) =   2
                l(6) =   2

     atomic species   valence    mass     pseudopotential
        Ge            14.00    72.63000     Ge( 1.00)

     16 Sym. Ops., with inversion, found ( 8 have fractional translation)

   Cartesian axes

     site n.     atom                  positions (alat units)
         1           Ge  tau(   1) = (   0.0000000   0.0000000   0.0000000  )
         2           Ge  tau(   2) = (   0.0000000   0.5036149   0.1351756  )

     number of k points=    30  Gaussian smearing, width (Ry)=  0.0100
                       cart. coord. in units 2pi/alat
        k(    1) = (   0.0000000   0.0000000   0.0000000), wk =   0.0092593
        k(    2) = (  -0.1654703   0.0000000   0.3082410), wk =   0.0740741
        k(    3) = (  -0.3309407   0.0000000   0.6164819), wk =   0.0740741
        k(    4) = (   0.4964110   0.0000000  -0.9247229), wk =   0.0370370
        k(    5) = (  -0.1654703   0.1654703   0.6164819), wk =   0.0740741
        k(    6) = (  -0.3309407   0.1654703   0.9247229), wk =   0.1481481
        k(    7) = (   0.4964110   0.1654703  -0.6164819), wk =   0.1481481
        k(    8) = (   0.3309407   0.1654703  -0.3082410), wk =   0.1481481
        k(    9) = (   0.1654703   0.1654703   0.0000000), wk =   0.0370370
        k(   10) = (  -0.3309407   0.3309407   1.2329638), wk =   0.0740741
        k(   11) = (   0.4964110   0.3309407  -0.3082410), wk =   0.1481481
        k(   12) = (   0.3309407   0.3309407  -0.0000000), wk =   0.0370370
        k(   13) = (   0.4964110  -0.4964110  -1.8494457), wk =   0.0185185
        k(   14) = (   0.0000000   0.0000000   0.6164819), wk =   0.0185185
        k(   15) = (  -0.1654703   0.0000000   0.9247229), wk =   0.0740741
        k(   16) = (   0.6618814   0.0000000  -0.6164819), wk =   0.0740741
        k(   17) = (   0.4964110   0.0000000  -0.3082410), wk =   0.0740741
        k(   18) = (   0.3309407   0.0000000   0.0000000), wk =   0.0370370
        k(   19) = (  -0.1654703   0.1654703   1.2329638), wk =   0.0740741
        k(   20) = (   0.6618814   0.1654703  -0.3082410), wk =   0.1481481
        k(   21) = (   0.4964110   0.1654703  -0.0000000), wk =   0.0740741
        k(   22) = (   0.6618814  -0.6618814  -1.8494457), wk =   0.0370370
        k(   23) = (   0.3309407  -0.6618814  -1.2329638), wk =   0.0740741
        k(   24) = (   0.4964110  -0.4964110  -1.2329638), wk =   0.0370370
        k(   25) = (   0.3309407  -0.4964110  -0.9247229), wk =   0.0740741
        k(   26) = (   0.0000000   0.0000000   1.2329638), wk =   0.0185185
        k(   27) = (   0.8273517   0.0000000  -0.3082410), wk =   0.0740741
        k(   28) = (   0.6618814   0.0000000  -0.0000000), wk =   0.0370370
        k(   29) = (   0.8273517  -0.8273517  -1.8494457), wk =   0.0370370
        k(   30) = (   0.0000000   0.0000000  -1.8494457), wk =   0.0092593

     Initial potential from superposition of free atoms

     starting charge      27.9984, renormalised to      28.0000
     Starting wfcs are   18 randomized atomic wfcs

     Self-consistent Calculation

[...]

     total energy              =    -357.25137476 Ry
     estimated scf accuracy    <       0.00000002 Ry

     iteration #  8     ecut=    80.00 Ry     beta= 0.40
     Davidson diagonalization with overlap
     ethr =  8.69E-11,  avg # of iterations =  2.0

     End of self-consistent calculation

[...]

          k =-0.1655 0.1655 1.2330 (  3132 PWs)   bands (ev):

[...]

          k = 0.0000 0.0000-1.8494 (  3124 PWs)   bands (ev):

   -13.0118 -13.0118 -12.8865 -12.8865 -12.8774 -12.8774 -12.8763 -12.8763
   -12.8715 -12.8715   2.9054   2.9054   6.0667   6.0667  17.9571  17.9571
    22.1355  22.1355

     the Fermi energy is    11.8557 ev

!    total energy              =    -357.25137477 Ry
     estimated scf accuracy    <          5.2E-09 Ry
     smearing contrib. (-TS)   =      -0.00078665 Ry
     internal energy E=F+TS    =    -357.25058812 Ry

     The total energy is F=E-TS. E is the sum of the following terms:
     one-electron contribution =    -140.78867174 Ry
     hartree contribution      =      91.89425507 Ry
     xc contribution           =     -87.25968787 Ry
     ewald contribution        =    -221.09648359 Ry

     convergence has been achieved in   8 iterations

     Forces acting on atoms (cartesian axes, Ry/au):

     atom    1 type  1   force =    -0.00000000    0.00000000    0.00000000
     atom    2 type  1   force =     0.00000000   -0.00000000   -0.00000000
     The non-local contrib.  to forces
     atom    1 type  1   force =     0.00000000   -0.00000000   -0.00000000
     atom    2 type  1   force =    -0.00000000    0.00000000    0.00000000
     The ionic contribution  to forces
     atom    1 type  1   force =     0.00000000   -0.00000000    0.00000000
     atom    2 type  1   force =    -0.00000000    0.00000000   -0.00000000
     The local contribution  to forces
     atom    1 type  1   force =    -0.00000000   -0.00000000    0.00000000
     atom    2 type  1   force =    -0.00000000    0.00000000    0.00000000
     The core correction contribution to forces
     atom    1 type  1   force =    -0.00000000    0.00000000   -0.00000000
     atom    2 type  1   force =     0.00000000    0.00000000    0.00000000
     The Hubbard contrib.    to forces
     atom    1 type  1   force =     0.00000000    0.00000000    0.00000000
     atom    2 type  1   force =     0.00000000    0.00000000    0.00000000
     The SCF correction term to forces
     atom    1 type  1   force =    -0.00000000    0.00000000   -0.00000000
     atom    2 type  1   force =     0.00000000    0.00000000   -0.00000000

     Total force =     0.000000     Total SCF correction =     0.000000

     Computing stress (Cartesian axis) and pressure

          total   stress  (Ry/bohr**3)                   (kbar)     P=       -0.66
  -0.00000484  -0.00000000  -0.00000000           -0.71       -0.00       -0.00
  -0.00000000  -0.00000484   0.00000000           -0.00       -0.71        0.00
  -0.00000000   0.00000000  -0.00000383           -0.00        0.00       -0.56

     Writing all to output data dir ./Ge_out/Ge_scf.save/

     General routines

     Parallel routines

   This run was terminated on:  19: 4:25  26Apr2025

   JOB DONE.