     Program PWSCF v.6.8 starts on 28Apr2025 at 10:44:46

     R & G space division:  proc/nbgrp/npool/nimage =      56

     Reading input from surface_relax.in
Warning: card &CELL ignored
Warning: card / ignored
Warning: card &FCP ignored
Warning: card / ignored
Warning: card &RISM ignored
Warning: card / ignored

     Current dimensions of program PWSCF are:
     Max number of different atomic species (ntypx) = 10
     Max number of k-points (npk) =  40000
     Max angular momentum in pseudopotentials (lmaxx) =  4

     gamma-point specific algorithms are used
     Found symmetry operation: I + (  0.0000  0.5000  0.0000)
     This is a supercell, fractional translations are disabled

     Using Slab Decomposition

     bravais-lattice index     =            0
     lattice parameter (alat)  =      30.3318  a.u.
     unit-cell volume          =   16777.8746 (a.u.)^3
     number of atoms/cell      =           64
     number of atomic types    =            1
     number of electrons       =       896.00
     number of Kohn-Sham states=          538
     kinetic-energy cutoff     =      60.0000  Ry
     charge density cutoff     =     240.0000  Ry
     scf convergence threshold =      1.0E-06
     mixing beta               =       0.4000
     number of iterations used =            8  plain     mixing
     energy convergence thresh.=      1.0E-04
     force convergence thresh. =      1.0E-03
     Exchange-correlation= PBE
                           (   1   4   3   4   0   0   0)
     nstep                     =           50

     celldm(1)=  30.331827  celldm(2)=   0.000000  celldm(3)=   0.000000
     celldm(4)=   0.000000  celldm(5)=   0.000000  celldm(6)=   0.000000

     crystal axes: (cart. coord. in units of alat)
               a(1) = (   1.000000   0.000000   0.000000 )
               a(2) = (   0.250000   0.433013   0.000000 )
               a(3) = (   0.000000   0.000000   1.388483 )

     reciprocal axes: (cart. coord. in units 2 pi/alat)
               b(1) = (  1.000000 -0.577351  0.000000 )
               b(2) = (  0.000000  2.309401  0.000000 )
               b(3) = (  0.000000  0.000000  0.720210 )

     PseudoPot. # 1 for Ge read from file:
     ./Ge.upf
     MD5 check sum: 087fa14d6c89b52166990835c3b338da
     Pseudo is Norm-conserving + core correction, Zval = 14.0
     Generated using ONCVPSP code by D. R. Hamann
     Using radial grid of 1560 points,  6 beta functions with:
                l(1) =   0
                l(2) =   0
                l(3) =   1
                l(4) =   1
                l(5) =   2
                l(6) =   2

     atomic species   valence    mass     pseudopotential
        Ge            14.00    72.63000     Ge( 1.00)

     No symmetry found

   Cartesian axes

     site n.     atom                  positions (alat units)
         1           Ge  tau(   1) = (   0.0625000   0.0360844   0.4646019  )
         2           Ge  tau(   2) = (   0.0625000   0.0360844   0.3115088  )
         3           Ge  tau(   3) = (   0.1875001   0.1082532   0.6687261  )
         4           Ge  tau(   4) = (   0.1875001   0.1082532   0.5156329  )
         5           Ge  tau(   5) = (   0.3125001   0.1804220   0.8728502  )
         6           Ge  tau(   6) = (   0.3125001   0.1804220   0.7197571  )
         7           Ge  tau(   7) = (   0.0625001   0.0360844   1.0769744  )
         8           Ge  tau(   8) = (   0.0625001   0.0360844   0.9238812  )
         9           Ge  tau(   9) = (   0.1875001   0.2525907   0.4646019  )
        10           Ge  tau(  10) = (   0.1875001   0.2525907   0.3115088  )
        11           Ge  tau(  11) = (   0.3125002   0.3247595   0.6687261  )
        12           Ge  tau(  12) = (   0.3125001   0.3247595   0.5156329  )
        13           Ge  tau(  13) = (   0.4375002   0.3969283   0.8728502  )
        14           Ge  tau(  14) = (   0.4375002   0.3969283   0.7197571  )
        15           Ge  tau(  15) = (   0.1875002   0.2525908   1.0769744  )
        16           Ge  tau(  16) = (   0.1875002   0.2525908   0.9238812  )
        17           Ge  tau(  17) = (   0.3125000   0.0360844   0.4646019  )
        18           Ge  tau(  18) = (   0.3125000   0.0360844   0.3115088  )
        19           Ge  tau(  19) = (   0.4375001   0.1082532   0.6687261  )
        20           Ge  tau(  20) = (   0.4375001   0.1082532   0.5156329  )
        21           Ge  tau(  21) = (   0.5625001   0.1804220   0.8728502  )
        22           Ge  tau(  22) = (   0.5625001   0.1804220   0.7197571  )
        23           Ge  tau(  23) = (   0.3125001   0.0360844   1.0769744  )
        24           Ge  tau(  24) = (   0.3125001   0.0360844   0.9238812  )
        25           Ge  tau(  25) = (   0.4375001   0.2525907   0.4646019  )
        26           Ge  tau(  26) = (   0.4375001   0.2525907   0.3115088  )
        27           Ge  tau(  27) = (   0.5625002   0.3247595   0.6687261  )
        28           Ge  tau(  28) = (   0.5625001   0.3247595   0.5156329  )
        29           Ge  tau(  29) = (   0.6875002   0.3969283   0.8728502  )
        30           Ge  tau(  30) = (   0.6875002   0.3969283   0.7197571  )
        31           Ge  tau(  31) = (   0.4375002   0.2525908   1.0769744  )
        32           Ge  tau(  32) = (   0.4375002   0.2525908   0.9238812  )
        33           Ge  tau(  33) = (   0.5625000   0.0360844   0.4646019  )
        34           Ge  tau(  34) = (   0.5625000   0.0360844   0.3115088  )
        35           Ge  tau(  35) = (   0.6875001   0.1082532   0.6687261  )
        36           Ge  tau(  36) = (   0.6875001   0.1082532   0.5156329  )
        37           Ge  tau(  37) = (   0.8125001   0.1804220   0.8728502  )
        38           Ge  tau(  38) = (   0.8125001   0.1804220   0.7197571  )
        39           Ge  tau(  39) = (   0.5625001   0.0360844   1.0769744  )
        40           Ge  tau(  40) = (   0.5625001   0.0360844   0.9238812  )
        41           Ge  tau(  41) = (   0.6875001   0.2525907   0.4646019  )
        42           Ge  tau(  42) = (   0.6875001   0.2525907   0.3115088  )
        43           Ge  tau(  43) = (   0.8125002   0.3247595   0.6687261  )
        44           Ge  tau(  44) = (   0.8125001   0.3247595   0.5156329  )
        45           Ge  tau(  45) = (   0.9375002   0.3969283   0.8728502  )
        46           Ge  tau(  46) = (   0.9375002   0.3969283   0.7197571  )
        47           Ge  tau(  47) = (   0.6875002   0.2525908   1.0769744  )
        48           Ge  tau(  48) = (   0.6875002   0.2525908   0.9238812  )
        49           Ge  tau(  49) = (   0.8125000   0.0360844   0.4646019  )
        50           Ge  tau(  50) = (   0.8125000   0.0360844   0.3115088  )
        51           Ge  tau(  51) = (   0.9375001   0.1082532   0.6687261  )
        52           Ge  tau(  52) = (   0.9375001   0.1082532   0.5156329  )
        53           Ge  tau(  53) = (   1.0625001   0.1804220   0.8728502  )
        54           Ge  tau(  54) = (   1.0625001   0.1804220   0.7197571  )
        55           Ge  tau(  55) = (   0.8125001   0.0360844   1.0769744  )
        56           Ge  tau(  56) = (   0.8125001   0.0360844   0.9238812  )
        57           Ge  tau(  57) = (   0.9375001   0.2525907   0.4646019  )
        58           Ge  tau(  58) = (   0.9375001   0.2525907   0.3115088  )
        59           Ge  tau(  59) = (   1.0625002   0.3247595   0.6687261  )
        60           Ge  tau(  60) = (   1.0625001   0.3247595   0.5156329  )
        61           Ge  tau(  61) = (   1.1875002   0.3969283   0.8728502  )
        62           Ge  tau(  62) = (   1.1875002   0.3969283   0.7197571  )
        63           Ge  tau(  63) = (   0.9375002   0.2525908   1.0769744  )
        64           Ge  tau(  64) = (   0.9375002   0.2525908   0.9238812  )

     number of k points=     1  Gaussian smearing, width (Ry)=  0.0100
                       cart. coord. in units 2pi/alat
        k(    1) = (   0.0000000   0.0000000   0.0000000), wk =   2.0000000

     Initial potential from superposition of free atoms

     starting charge  895.94733, renormalised to  896.00000

     negative rho (up, down):  3.978E-05 0.000E+00
     Starting wfcs are  576 randomized atomic wfcs

     Self-consistent Calculation

     iteration #  1     ecut=    60.00 Ry     beta= 0.40
     Davidson diagonalization with overlap
     ethr =  1.00E-02,  avg # of iterations =  5.0

     Threshold (ethr) on eigenvalues was too large:
     Diagonalizing with lowered threshold

     Davidson diagonalization with overlap
     ethr =  4.19E-04,  avg # of iterations =  5.0

     negative rho (up, down):  1.117E-05 0.000E+00

     total energy              =  -11426.90068614 Ry
     estimated scf accuracy    <       4.03811106 Ry

[...]

     End of self-consistent calculation

          k = 0.0000 0.0000 0.0000 ( 65858 PWs)   bands (ev):

   -21.4096 -21.4096 -21.3997 -21.3996 -21.3971 -21.3971 -21.3944 -21.3921
   -21.3875 -21.3874 -21.3862 -21.3784 -21.3716 -21.3714 -21.3712 -21.3710
   -21.3651 -21.3641 -21.3641 -21.3628 -21.3628 -21.3530 -21.3527 -21.3527
   -21.3523 -21.3522 -21.3519 -21.3518 -21.3515 -21.3511 -21.3510 -21.3510
   -21.3507 -21.3498 -21.3498 -21.3477 -21.3475 -21.3474 -21.3473 -21.3319
   -21.3294 -21.3258 -21.3249 -21.3248 -21.3244 -21.3240 -21.3239 -21.3235
   -21.3234 -21.3232 -21.3231 -21.3225 -21.3224 -21.3217 -21.3210 -21.3209
   -21.3208 -21.3162 -21.3122 -21.3122 -21.3107 -21.3107 -21.3042 -21.2973
   -21.2924 -21.2924 -21.2859 -21.2859 -21.2750 -21.2750 -21.2734 -21.2734
   -21.2715 -21.2702 -21.2702 -21.2698 -21.2689 -21.2688 -21.2682 -21.2681
   -21.2676 -21.2675 -21.2674 -21.2673 -21.2671 -21.2670 -21.2650 -21.2650
   -21.2610 -21.2610 -21.2555 -21.2554 -21.2553 -21.2536 -21.2523 -21.2523
   -21.2460 -21.2430 -21.2430 -21.2413 -21.2413 -21.2409 -21.2409 -21.2408
   -21.2373 -21.2373 -21.2346 -21.2346 -21.2338 -21.2307 -21.2307 -21.2285
   -21.2285 -21.2271 -21.2271 -21.2269 -21.2268 -21.2246 -21.2245 -21.2245
   -21.2234 -21.2234 -21.2198 -21.2176 -21.2166 -21.2166 -21.2114 -21.2111
   -21.2110 -21.2096 -21.2096 -21.2038 -21.2038 -21.2023 -21.2023 -21.2022
   -21.2013 -21.1999 -21.1999 -21.1926 -21.1926 -21.1924 -21.1923 -21.1899
   -21.1898 -21.1871 -21.1870 -21.1822 -21.1816 -21.1793 -21.1790 -21.1783
   -21.1781 -21.1781 -21.1757 -21.1757 -21.1730 -21.1730 -21.1702 -21.1690
   -21.1650 -21.1650 -21.1618 -21.1618 -21.1617 -21.1617 -21.1599 -21.1598
   -21.1595 -21.1594 -21.1589 -21.1588 -21.1578 -21.1566 -21.1556 -21.1556
   -21.1543 -21.1543 -21.1542 -21.1542 -21.1538 -21.1538 -21.1536 -21.1536
   -21.1496 -21.1484 -21.1483 -21.1482 -21.1473 -21.1473 -21.1467 -21.1467
   -21.1460 -21.1442 -21.1442 -21.1418 -21.1418 -21.1360 -21.1335 -21.1334
   -21.1314 -21.1314 -21.1257 -21.1256 -21.1247 -21.1233 -21.1233 -21.1227
   -21.1227 -21.1189 -21.1189 -21.1103 -21.1102 -21.1087 -21.1053 -21.1000
   -21.0915 -21.0887 -21.0887 -21.0868 -21.0848 -21.0846 -21.0846 -21.0833
   -21.0833 -21.0808 -21.0789 -21.0722 -21.0722 -21.0708 -21.0708 -21.0696
   -21.0696 -21.0681 -21.0681 -21.0630 -21.0599 -21.0599 -21.0539 -21.0539
[...]
Ge           15.0431680657        4.0568328128        4.7483383395
Ge           17.0530312450        5.2133673236       10.6759665925
Ge           17.0523798040        5.2137353989        8.2171768510
Ge           19.0621680871        6.3700194119       14.0692081481
Ge           19.0614655770        6.3704178758       11.6103746760
Ge           15.0515620825        4.0518350065       17.5382597447
Ge           15.0557266512        4.0496101724       15.0361939953

     Writing output data file ./out/ge.save/
     NEW-OLD atomic charge density approx. for the potential

     Self-consistent Calculation

[...]

     Threshold (ethr) on eigenvalues was too large:
     Diagonalizing with lowered threshold

     Davidson diagonalization with overlap
     ethr =  3.97E-09,  avg # of iterations =  4.0

[...]

     total energy              =  -11428.54611894 Ry
     estimated scf accuracy    <       0.00000011 Ry

     iteration #  9     ecut=    60.00 Ry     beta= 0.40
     Davidson diagonalization with overlap
     ethr =  1.27E-11,  avg # of iterations =  2.0

     End of self-consistent calculation

          k = 0.0000 0.0000 0.0000 ( 65858 PWs)   bands (ev):

   -21.4003 -21.4003 -21.3999 -21.3992 -21.3991 -21.3991 -21.3985 -21.3983
   -21.3982 -21.3976 -21.3976 -21.3966 -21.3950 -21.3950 -21.3938 -21.3938
   -21.3692 -21.3692 -21.3688 -21.3687 -21.3678 -21.3678 -21.3668 -21.3668
   -21.3663 -21.3663 -21.3658 -21.3657 -21.3652 -21.3651 -21.3650 -21.3647
   -21.3260 -21.3259 -21.3256 -21.3251 -21.3245 -21.3245 -21.3240 -21.3240
   -21.3240 -21.3236 -21.3236 -21.3231 -21.3226 -21.3226 -21.3222 -21.3222
   -21.2567 -21.2567 -21.2528 -21.2528 -21.2509 -21.2509 -21.2469 -21.2449
   -21.2403 -21.2380 -21.2379 -21.2342 -21.2318 -21.2316 -21.2314 -21.2296
   -21.2295 -21.2291 -21.2291 -21.2290 -21.2283 -21.2283 -21.2281 -21.2281
   -21.2281 -21.2281 -21.2278 -21.2278 -21.2273 -21.2273 -21.2251 -21.2251
   -21.2205 -21.2163 -21.2163 -21.2137 -21.2137 -21.2085 -21.2085 -21.2085
   -21.2085 -21.2084 -21.2074 -21.2074 -21.2071 -21.2071 -21.2071 -21.2071
   -21.2068 -21.2068 -21.2063 -21.2063 -21.2062 -21.2059 -21.2046 -21.2044
   -21.1866 -21.1858 -21.1749 -21.1749 -21.1690 -21.1690 -21.1621 -21.1590
   -21.1548 -21.1548 -21.1503 -21.1503 -21.1351 -21.1351 -21.1347 -21.1347
   -21.1280 -21.1280 -21.1179 -21.1158 -21.1158 -21.1096 -21.1096 -21.1082
   -21.1063 -21.1005 -21.1005 -21.0957 -21.0957 -21.0877 -21.0876 -21.0793
   -21.0782 -21.0776 -21.0776 -21.0735 -21.0698 -21.0698 -21.0697 -21.0697
   -21.0684 -21.0684 -21.0612 -21.0612 -21.0610 -21.0600 -21.0600 -21.0597
   -21.0597 -21.0581 -21.0581 -21.0569 -21.0560 -21.0560 -21.0541 -21.0541
   -21.0498 -21.0435 -21.0435 -21.0409 -21.0369 -21.0331 -21.0331 -21.0329
   -21.0296 -21.0268 -21.0260 -21.0260 -21.0211 -21.0128 -21.0128 -21.0106
   -21.0105 -21.0105 -21.0101 -21.0101 -21.0069 -21.0066 -21.0066 -21.0057
   -21.0057 -21.0050 -21.0016 -20.9979 -20.9978 -20.9972 -20.9972 -20.9945
   -20.9941 -20.9941 -20.9916 -20.9916 -20.9898 -20.9898 -20.9882 -20.9882
   -20.9879 -20.9879 -20.9840 -20.9836 -20.9836 -20.9747 -20.9715 -20.9707
   -20.9706 -20.9698 -20.9698 -20.9694 -20.9694 -20.9664 -20.9664 -20.9604
   -20.9604 -20.9582 -20.9545 -20.9542 -20.9542 -20.9505 -20.9477 -20.9456
   -20.9456 -20.9440 -20.9425 -20.9421 -20.9421 -20.9411 -20.9411 -20.9374
   -20.9373 -20.9372 -20.9372 -20.9356 -20.9352 -20.9352 -20.9343 -20.9343
   -20.8403 -20.8403 -20.8389 -20.8389 -20.8356 -20.8356 -20.8355 -20.8355
   -20.8345 -20.8345 -20.8335 -20.8335 -20.8286 -20.8286 -20.8284 -20.8284
   -20.8247 -20.8240 -20.8230 -20.8228 -20.8224 -20.8224 -20.8218 -20.8218
   -20.8090 -20.8074 -20.8007 -20.8000 -20.7997 -20.7997 -20.7996 -20.7996
   -20.7976 -20.7976 -20.7974 -20.7974 -20.7949 -20.7949 -20.7917 -20.7913
   -20.7898 -20.7898 -20.7896 -20.7896 -20.7845 -20.7845 -20.7842 -20.7838
   -20.7838 -20.7833 -20.7739 -20.7739 -20.7720 -20.7720 -20.7718 -20.7718
   -20.7717 -20.7717 -20.7709 -20.7709 -20.7707 -20.7707 -20.7659 -20.7645
   -20.7523 -20.7518 -20.7511 -20.7511 -20.7509 -20.7509 -20.7502 -20.7501
   -20.7498 -20.7486 -20.7486 -20.7482 -20.7482 -20.7479 -20.7475 -20.7475
    -8.5132  -7.9070  -7.8674  -7.8674  -7.2734  -7.2726  -7.2725  -6.7191
    -6.7191  -6.6376  -6.6375  -6.5838  -6.5838  -6.5747  -6.2048  -6.2048
    -6.1607  -6.1607  -6.1430  -5.6460  -5.6460  -5.6370  -5.6196  -5.6196
    -4.9850  -4.9727  -4.9727  -4.9518  -4.8712  -4.8712  -4.7012  -4.6721
    -4.6716  -4.3416  -4.3410  -4.1329  -4.1216  -4.1216  -4.0682  -4.0682
    -3.5993  -3.5904  -3.5904  -3.4076  -3.4075  -3.0012  -2.9923  -2.9923
    -2.9107  -2.8942  -2.8942  -2.8319  -2.8316  -2.7601  -2.7601  -2.6931
    -2.5461  -2.5461  -1.5618  -1.5616  -0.8930  -0.7102  -0.7101   0.1468
     0.1468   0.1612   0.1612   0.1745   0.1746   0.2319   0.2487   0.2487
     0.3156   0.3156   0.4736   0.4842   0.4842   0.6182   0.6182   1.0177
     1.0408   1.0409   1.1710   1.1710   1.1829   1.2420   1.2420   1.7380
     1.7399   1.7399   1.7428   1.7428   1.7646   1.7995   1.7995   1.9479
     1.9482   2.0614   2.1162   2.1162   2.1574   2.1574   2.2393   2.2393
     2.2581   2.3294   2.3625   2.3625   2.3715   2.3717   2.4061   2.4061
     2.5521   2.5523   2.6570   2.6888   2.6888   2.7364   2.7729   2.8276
     2.8576   2.8577   2.9955   2.9955   3.0429   3.0429   3.2242   3.2874
     3.5974   3.5982   3.6623   3.7169   3.9047   3.9047   3.9531   3.9540
     4.0977   4.0977   4.2922   4.3737   4.7440   4.7563   4.7652   4.7652
     4.9544   4.9544   4.9757   4.9879   4.9880   5.2186   5.2186   5.2506
     5.2507   5.2692   5.2827   5.2827   5.3100   5.3793   5.4283   5.4378
     5.4378   5.5163   5.5165   5.7010   5.7017   5.7351   5.7352   5.7883
     5.7890   5.8527   5.9161   5.9161   5.9507   5.9763   5.9763   6.0504
     6.1805   6.2598   6.3328   6.3330   6.3528   6.3528   6.8044   6.9969
     6.9973   7.0228   7.0684   7.1509   7.1700   7.1701   7.2430   7.2430
     7.2788   7.2788   7.3022   7.4741   7.4743   7.7095   7.7097   7.7113
     7.7113   7.7204   7.7419   7.7591   7.8285   7.8285   7.8555   7.8555
     8.0637   8.0637   8.0788   8.1642   8.1642   8.3497   8.3498   8.3537
     8.3632   8.3632

     the Fermi energy is     3.4287 ev

!    total energy              =  -11428.54611896 Ry
     estimated scf accuracy    <          9.1E-09 Ry
     smearing contrib. (-TS)   =      -0.00528163 Ry
     internal energy E=F+TS    =  -11428.54083733 Ry

     The total energy is F=E-TS. E is the sum of the following terms:
     one-electron contribution =  -30942.24820353 Ry
     hartree contribution      =   15890.61841717 Ry
     xc contribution           =   -2787.06272585 Ry
     ewald contribution        =    6410.15167488 Ry

     convergence has been achieved in   9 iterations

     Forces acting on atoms (cartesian axes, Ry/au):

     atom    1 type  1   force =    -0.00007632    0.00004647    0.00066567
     atom    2 type  1   force =     0.00019544   -0.00009078   -0.00048250
     atom    3 type  1   force =    -0.00011315    0.00006567    0.00012442
     atom    4 type  1   force =    -0.00032663    0.00018763   -0.00031303
     atom    5 type  1   force =     0.00032058   -0.00018444    0.00030633
     atom    6 type  1   force =     0.00010667   -0.00006212   -0.00011721
     atom    7 type  1   force =    -0.00008456    0.00007557    0.00048967
     atom    8 type  1   force =     0.00006860   -0.00003682   -0.00066995
     atom    9 type  1   force =    -0.00007810    0.00004265    0.00066686
     atom   10 type  1   force =     0.00018816   -0.00013073   -0.00048556
     atom   11 type  1   force =    -0.00011411    0.00006560    0.00012857
     atom   12 type  1   force =    -0.00032688    0.00018969   -0.00031161
     atom   13 type  1   force =     0.00032112   -0.00018602    0.00030546
     atom   14 type  1   force =     0.00010769   -0.00006170   -0.00012094
     atom   15 type  1   force =    -0.00009337    0.00002709    0.00048689
     atom   16 type  1   force =     0.00006734   -0.00004173   -0.00067152
     atom   17 type  1   force =    -0.00007324    0.00004453    0.00066889
     atom   18 type  1   force =     0.00009623   -0.00003127   -0.00048761
     atom   19 type  1   force =    -0.00010545    0.00006060    0.00012728
     atom   20 type  1   force =    -0.00030785    0.00017683   -0.00031192
     atom   21 type  1   force =     0.00032178   -0.00018471    0.00030610
     atom   22 type  1   force =     0.00012007   -0.00006867   -0.00012441
     atom   23 type  1   force =    -0.00019959    0.00013899    0.00049112
     atom   24 type  1   force =     0.00006717   -0.00003628   -0.00067604
     atom   25 type  1   force =    -0.00007409    0.00004049    0.00066773
     atom   26 type  1   force =     0.00008950   -0.00007600   -0.00049006
     atom   27 type  1   force =    -0.00010565    0.00006129    0.00013052
     atom   28 type  1   force =    -0.00030808    0.00017883   -0.00030941
     atom   29 type  1   force =     0.00032227   -0.00018715    0.00030135
     atom   30 type  1   force =     0.00011977   -0.00006966   -0.00012912
     atom   31 type  1   force =    -0.00020783    0.00009632    0.00048801
     atom   32 type  1   force =     0.00006497   -0.00004006   -0.00067459
     atom   33 type  1   force =    -0.00006228    0.00003861    0.00067620
     atom   34 type  1   force =     0.00021558   -0.00010176   -0.00047810
     atom   35 type  1   force =    -0.00010849    0.00006229    0.00012763
     atom   36 type  1   force =    -0.00030868    0.00017635   -0.00030717
     atom   37 type  1   force =     0.00031330   -0.00017909    0.00030416
     atom   38 type  1   force =     0.00011405   -0.00006554   -0.00012266
     atom   39 type  1   force =    -0.00009712    0.00006695    0.00049234
     atom   40 type  1   force =     0.00007983   -0.00004616   -0.00067668
     atom   41 type  1   force =    -0.00006422    0.00003446    0.00067406
     atom   42 type  1   force =     0.00020705   -0.00014226   -0.00048092
     atom   43 type  1   force =    -0.00010841    0.00006292    0.00013137
     atom   44 type  1   force =    -0.00030787    0.00017952   -0.00030603
     atom   45 type  1   force =     0.00031272   -0.00018229    0.00030275
     atom   46 type  1   force =     0.00011390   -0.00006614   -0.00012681
     atom   47 type  1   force =    -0.00009192    0.00004229    0.00048988
     atom   48 type  1   force =     0.00008137   -0.00004689   -0.00067753
     atom   49 type  1   force =    -0.00007274    0.00004254    0.00067409
     atom   50 type  1   force =     0.00008824   -0.00003952   -0.00048655
     atom   51 type  1   force =    -0.00011467    0.00006546    0.00012691
     atom   52 type  1   force =    -0.00032345    0.00018543   -0.00031166
     atom   53 type  1   force =     0.00031086   -0.00017848    0.00031165
     atom   54 type  1   force =     0.00010205   -0.00005821   -0.00012043
     atom   55 type  1   force =    -0.00019715    0.00013531    0.00048154
     atom   56 type  1   force =     0.00007172   -0.00003910   -0.00067422
     atom   57 type  1   force =    -0.00007155    0.00004082    0.00067296
     atom   58 type  1   force =     0.00009265   -0.00006510   -0.00048904
     atom   59 type  1   force =    -0.00011395    0.00006660    0.00013131
     atom   60 type  1   force =    -0.00032373    0.00018820   -0.00030656
     atom   61 type  1   force =     0.00031206   -0.00018114    0.00030934
     atom   62 type  1   force =     0.00010175   -0.00005941   -0.00012368
     atom   63 type  1   force =    -0.00020410    0.00009633    0.00047881
     atom   64 type  1   force =     0.00007071   -0.00004310   -0.00067635

     Total force =     0.003979     Total SCF correction =     0.000526
     SCF correction compared to forces is large: reduce conv_thr to get better values
     Energy error            =      5.3E-05 Ry
     Gradient error          =      6.8E-04 Ry/Bohr

     bfgs converged in  15 scf cycles and  14 bfgs steps
     (criteria: energy <  1.0E-04 Ry, force <  1.0E-03 Ry/Bohr)

     End of BFGS Geometry Optimization

     Final energy             =  -11428.5461189564 Ry

     File ./out/ge.bfgs deleted, as requested
Begin final coordinates

ATOMIC_POSITIONS (angstrom)
Ge            0.9952063923        0.5838790074        7.2502216204
Ge            0.9991692563        0.5817738466        4.7481666979
Ge            3.0084356764        1.7381368487       10.6763122196
Ge            3.0077879061        1.7385232788        8.2175454653
Ge            5.0177092902        2.8949563758       14.0688899461
Ge            5.0170780278        2.8953313800       11.6101086867
Ge            1.0079287454        0.5768479446       17.5381358209
Ge            1.0113197160        0.5745650618       15.0360687964
Ge            3.0015422895        4.0588467703        7.2503173362
Ge            3.0054716364        4.0563935990        4.7482651804
Ge            5.0147950120        5.2133985831       10.6761381744
Ge            5.0141501458        5.2137575747        8.2173508216
Ge            7.0240747775        6.3699680398       14.0690861352
Ge            7.0234475448        6.3703170917       11.6102825675
Ge            3.0141548813        4.0512514180       17.5382110175
Ge            3.0176969718        4.0495328452       15.0361435583
Ge            5.0078099353        0.5839384786        7.2503326639
Ge            5.0115522914        0.5820591483        4.7482631188
Ge            7.0213024077        1.7380602704       10.6761530454
Ge            7.0205863229        1.7384811249        8.2173959138
Ge            9.0303459448        2.8950105763       14.0690564726
Ge            9.0296568664        2.8954152978       11.6102765425
Ge            5.0198902121        0.5771933523       17.5381875563
Ge            5.0239534974        0.5746335373       15.0361357809
Ge            7.0141863668        4.0589081286        7.2504065146
Ge            7.0178171303        4.0565335580        4.7483372372
Ge            9.0276560310        5.2133172777       10.6760075565
Ge            9.0269387516        5.2137240311        8.2172259053
Ge           11.0367101249        6.3700190808       14.0691979699
Ge           11.0360210488        6.3704073421       11.6104128989
Ge            7.0261943066        4.0517479641       17.5382873233
Ge            7.0302931937        4.0495959415       15.0362317060
Ge            9.0206400362        0.5838916902        7.2502341732
Ge            9.0249014482        0.5816331180        4.7481616097
Ge           11.0338593529        1.7381575619       10.6762905367
Ge           11.0331679809        1.7385658858        8.2175581037
Ge           13.0431812335        2.8949466363       14.0688549151
Ge           13.0424525646        2.8953755571       11.6100833614
Ge            9.0329347312        0.5768078706       17.5380668210
Ge            9.0367631787        0.5745546879       15.0360024378
Ge           11.0269827090        4.0588558716        7.2503272186
Ge           11.0311901431        4.0562233749        4.7482517981
Ge           13.0402140905        5.2134180671       10.6761226222
Ge           13.0395280014        5.2138041024        8.2173696895
Ge           15.0495462349        6.3699567208       14.0690454484
Ge           15.0488250230        6.3703654218       11.6102556922
Ge           11.0394204326        4.0516612157       17.5381454747
Ge           11.0431553065        4.0495487159       15.0360822988
Ge           13.0331671729        0.5839785354        7.2503146716
Ge           13.0366987767        0.5820017955        4.7482570429
Ge           15.0466686996        1.7381085702       10.6760985362
Ge           15.0460176748        1.7384926734        8.2173158927
Ge           17.0557992064        2.8950102007       14.0690292133
Ge           17.0550882596        2.8954256961       11.6102237413
Ge           13.0452385796        0.5772161875       17.5381764777
Ge           13.0493773171        0.5746478266       15.0361076464
Ge           15.0395572848        4.0589739955        7.2503984257
Ge           15.0431680657        4.0568328128        4.7483383395
Ge           17.0530312450        5.2133673236       10.6759665925
Ge           17.0523798040        5.2137353989        8.2171768510
Ge           19.0621680871        6.3700194119       14.0692081481
Ge           19.0614655770        6.3704178758       11.6103746760
Ge           15.0515620825        4.0518350065       17.5382597447
Ge           15.0557266512        4.0496101724       15.0361939953
End final coordinates

     Writing output data file ./out/ge.save/

     General routines

     Parallel routines

   This run was terminated on:  10:54:19  28Apr2025

   JOB DONE.