     Program PWSCF v.6.8 starts on 29Apr2025 at  6: 3: 3

     R & G space division:  proc/nbgrp/npool/nimage =      56

     Reading input from surface_relax.in
Warning: card &CELL ignored
Warning: card / ignored
Warning: card &FCP ignored
Warning: card / ignored
Warning: card &RISM ignored
Warning: card / ignored

     Current dimensions of program PWSCF are:
     Max number of different atomic species (ntypx) = 10
     Max number of k-points (npk) =  40000
     Max angular momentum in pseudopotentials (lmaxx) =  4

     Using Slab Decomposition

     bravais-lattice index     =            0
     lattice parameter (alat)  =      30.8404  a.u.
     unit-cell volume          =   18061.3520 (a.u.)^3
     number of atoms/cell      =           64
     number of atomic types    =            1
     number of electrons       =       896.00
     number of Kohn-Sham states=          538
     kinetic-energy cutoff     =      60.0000  Ry
     charge density cutoff     =     240.0000  Ry
     scf convergence threshold =      1.0E-06
     mixing beta               =       0.4000
     number of iterations used =            8  plain     mixing
     energy convergence thresh.=      1.0E-04
     force convergence thresh. =      1.0E-03
     Exchange-correlation= PBE
                           (   1   4   3   4   0   0   0)
     nstep                     =          100

     celldm(1)=  30.840377  celldm(2)=   0.000000  celldm(3)=   0.000000
     celldm(4)=   0.000000  celldm(5)=   0.000000  celldm(6)=   0.000000

     crystal axes: (cart. coord. in units of alat)
               a(1) = (   1.000000   0.000000   0.000000 )
               a(2) = (   0.000000   0.500000   0.000000 )
               a(3) = (   0.000000   0.000000   1.231463 )

     reciprocal axes: (cart. coord. in units 2 pi/alat)
               b(1) = (  1.000000  0.000000  0.000000 )
               b(2) = (  0.000000  2.000000  0.000000 )
               b(3) = (  0.000000  0.000000  0.812043 )

     PseudoPot. # 1 for Ge read from file:
     ./Ge.upf
     MD5 check sum: 087fa14d6c89b52166990835c3b338da
     Pseudo is Norm-conserving + core correction, Zval = 14.0
     Generated using ONCVPSP code by D. R. Hamann
     Using radial grid of 1560 points,  6 beta functions with:
                l(1) =   0
                l(2) =   0
                l(3) =   1
                l(4) =   1
                l(5) =   2
                l(6) =   2

     atomic species   valence    mass     pseudopotential
        Ge            14.00    72.63000     Ge( 1.00)

     No symmetry found

   Cartesian axes

     site n.     atom                  positions (alat units)
         1           Ge  tau(   1) = (   0.0001139  -0.0000516   0.3074291  )
         2           Ge  tau(   2) = (   0.1243604   0.0000370   0.3939077  )
         3           Ge  tau(   3) = (   0.1240029   0.1242562   0.4829100  )
         4           Ge  tau(   4) = (   0.0007286   0.1260733   0.5714466  )
         5           Ge  tau(   5) = (   0.0006763  -0.0004678   0.6597498  )
         6           Ge  tau(   6) = (   0.1259744  -0.0004107   0.7472648  )
         7           Ge  tau(   7) = (   0.1241705   0.1242597   0.8369382  )
         8           Ge  tau(   8) = (  -0.0006207   0.1244536   0.9239293  )
         9           Ge  tau(   9) = (  -0.0008808   0.2507098   0.3070254  )
        10           Ge  tau(  10) = (   0.1242339   0.2492273   0.3954042  )
        11           Ge  tau(  11) = (   0.1259868   0.3751400   0.4828160  )
        12           Ge  tau(  12) = (   0.0001523   0.3752892   0.5709866  )
        13           Ge  tau(  13) = (   0.0007697   0.2502773   0.6602209  )
        14           Ge  tau(  14) = (   0.1244685   0.2499764   0.7494189  )
        15           Ge  tau(  15) = (   0.1255741   0.3756494   0.8374799  )
        16           Ge  tau(  16) = (   0.0010957   0.3748487   0.9242091  )
        17           Ge  tau(  17) = (   0.2511608   0.0007076   0.3055775  )
        18           Ge  tau(  18) = (   0.3758884  -0.0002867   0.3955224  )
        19           Ge  tau(  19) = (   0.3762239   0.1242565   0.4830679  )
        20           Ge  tau(  20) = (   0.2493266   0.1255987   0.5719684  )
        21           Ge  tau(  21) = (   0.2492021   0.0005422   0.6595042  )
        22           Ge  tau(  22) = (   0.3758459  -0.0002964   0.7484551  )
        23           Ge  tau(  23) = (   0.3758249   0.1240476   0.8367054  )
        24           Ge  tau(  24) = (   0.2508970   0.1242370   0.9261233  )
        25           Ge  tau(  25) = (   0.2507056   0.2506008   0.3056284  )
        26           Ge  tau(  26) = (   0.3750084   0.2497090   0.3958458  )
        27           Ge  tau(  27) = (   0.3758336   0.3742165   0.4839385  )
        28           Ge  tau(  28) = (   0.2501101   0.3757297   0.5718178  )
        29           Ge  tau(  29) = (   0.2510072   0.2492138   0.6602878  )
        30           Ge  tau(  30) = (   0.3761754   0.2500562   0.7495341  )
        31           Ge  tau(  31) = (   0.3752308   0.3740968   0.8379030  )
        32           Ge  tau(  32) = (   0.2498665   0.3743469   0.9238728  )
        33           Ge  tau(  33) = (   0.5008879  -0.0003210   0.3067219  )
        34           Ge  tau(  34) = (   0.6256914  -0.0006884   0.3941685  )
        35           Ge  tau(  35) = (   0.6249467   0.1250277   0.4841448  )
        36           Ge  tau(  36) = (   0.4992691   0.1248067   0.5707058  )
        37           Ge  tau(  37) = (   0.4990752   0.0012186   0.6602449  )
        38           Ge  tau(  38) = (   0.6251595   0.0006808   0.7483833  )
        39           Ge  tau(  39) = (   0.6242958   0.1246330   0.8358276  )
        40           Ge  tau(  40) = (   0.4989041   0.1247498   0.9250024  )
        41           Ge  tau(  41) = (   0.4990471   0.2500990   0.3073415  )
        42           Ge  tau(  42) = (   0.6243323   0.2498822   0.3942618  )
        43           Ge  tau(  43) = (   0.6242449   0.3757294   0.4840156  )
        44           Ge  tau(  44) = (   0.4993699   0.3740905   0.5711779  )
        45           Ge  tau(  45) = (   0.4991812   0.2507437   0.6596378  )
        46           Ge  tau(  46) = (   0.6246716   0.2490340   0.7478783  )
        47           Ge  tau(  47) = (   0.6260851   0.3750164   0.8359292  )
        48           Ge  tau(  48) = (   0.4989286   0.3759833   0.9257380  )
        49           Ge  tau(  49) = (   0.7502301  -0.0004406   0.3058040  )
        50           Ge  tau(  50) = (   0.8743570  -0.0004498   0.3939627  )
        51           Ge  tau(  51) = (   0.8755039   0.1242014   0.4822139  )
        52           Ge  tau(  52) = (   0.7497028   0.1259277   0.5723547  )
        53           Ge  tau(  53) = (   0.7489011  -0.0000100   0.6590960  )
        54           Ge  tau(  54) = (   0.8751344   0.0002326   0.7481597  )
        55           Ge  tau(  55) = (   0.8750921   0.1243922   0.8360226  )
        56           Ge  tau(  56) = (   0.7499687   0.1258656   0.9252713  )
        57           Ge  tau(  57) = (   0.7488915   0.2505218   0.3064775  )
        58           Ge  tau(  58) = (   0.8740204   0.2499668   0.3939934  )
        59           Ge  tau(  59) = (   0.8757025   0.3740207   0.4837286  )
        60           Ge  tau(  60) = (   0.7490266   0.3741319   0.5706896  )
        61           Ge  tau(  61) = (   0.7499670   0.2497362   0.6604329  )
        62           Ge  tau(  62) = (   0.8740443   0.2510463   0.7482634  )
        63           Ge  tau(  63) = (   0.8738511   0.3739634   0.8374082  )
        64           Ge  tau(  64) = (   0.7493892   0.3756592   0.9257263  )

     number of k points=     2  Gaussian smearing, width (Ry)=  0.0100
                       cart. coord. in units 2pi/alat
        k(    1) = (   0.0000000   0.0000000   0.0000000), wk =   1.0000000
        k(    2) = (   0.0000000  -1.0000000   0.0000000), wk =   1.0000000

     Initial potential from superposition of free atoms

     starting charge  895.94733, renormalised to  896.00000

     negative rho (up, down):  4.893E-05 0.000E+00
     Starting wfcs are  576 randomized atomic wfcs

     Self-consistent Calculation

     iteration #  1     ecut=    60.00 Ry     beta= 0.40
     Davidson diagonalization with overlap
     ethr =  1.00E-02,  avg # of iterations =  3.0

     Threshold (ethr) on eigenvalues was too large:
     Diagonalizing with lowered threshold

     Davidson diagonalization with overlap
     ethr =  2.29E-04,  avg # of iterations = 13.5

     negative rho (up, down):  1.491E-05 0.000E+00

     total energy              =  -11428.59768217 Ry
     estimated scf accuracy    <       2.26142906 Ry

[...]

     iteration #  8     ecut=    60.00 Ry     beta= 0.40
     Davidson diagonalization with overlap
     c_bands:  2 eigenvalues not converged
     ethr =  3.76E-06,  avg # of iterations = 16.5

[...]

     End of self-consistent calculation

          k = 0.0000 0.0000 0.0000 (141623 PWs)   bands (ev):

   -21.8737 -21.8714 -21.8693 -21.8671 -21.8659 -21.8638 -21.8633 -21.8615
   -21.8575 -21.8550 -21.8547 -21.8533 -21.8490 -21.8474 -21.8448 -21.8358
   -21.8343 -21.8340 -21.8314 -21.8305 -21.8289 -21.8278 -21.8257 -21.8247
   -21.8228 -21.8227 -21.8201 -21.8197 -21.8158 -21.8124 -21.8110 -21.8091
   -21.8085 -21.8067 -21.8053 -21.8016 -21.7977 -21.7964 -21.7944 -21.7933
   -21.7925 -21.7906 -21.7858 -21.7847 -21.7834 -21.7827 -21.7819 -21.7813
   -21.7806 -21.7805 -21.7780 -21.7762 -21.7750 -21.7724 -21.7712 -21.7687
   -21.7681 -21.7662 -21.7641 -21.7629 -21.7614 -21.7610 -21.7591 -21.7552
   -21.7539 -21.7528 -21.7520 -21.7502 -21.7489 -21.7482 -21.7475 -21.7465
   -21.7452 -21.7433 -21.7412 -21.7393 -21.7374 -21.7369 -21.7365 -21.7356
   -21.7335 -21.7312 -21.7303 -21.7284 -21.7252 -21.7223 -21.7194 -21.7190
   -21.7150 -21.7146 -21.7124 -21.7117 -21.7062 -21.7038 -21.7026 -21.7023
   -21.6998 -21.6986 -21.6983 -21.6973 -21.6959 -21.6938 -21.6922 -21.6908
   -21.6906 -21.6898 -21.6887 -21.6879 -21.6856 -21.6852 -21.6847 -21.6827
   -21.6822 -21.6818 -21.6809 -21.6789 -21.6783 -21.6776 -21.6762 -21.6736
   -21.6728 -21.6726 -21.6723 -21.6718 -21.6703 -21.6697 -21.6644 -21.6589
   -21.6581 -21.6555 -21.6553 -21.6542 -21.6536 -21.6531 -21.6526 -21.6508
   -21.6486 -21.6481 -21.6466 -21.6427 -21.6419 -21.6397 -21.6388 -21.6381
   -21.6372 -21.6366 -21.6352 -21.6348 -21.6340 -21.6338 -21.6335 -21.6331
   -21.6322 -21.6320 -21.6309 -21.6294 -21.6285 -21.6275 -21.6273 -21.6268
   -21.6234 -21.6232 -21.6228 -21.6214 -21.6213 -21.6207 -21.6206 -21.6196
   -21.6187 -21.6181 -21.6172 -21.6167 -21.6160 -21.6157 -21.6153 -21.6152
   -21.6142 -21.6127 -21.6125 -21.6122 -21.6117 -21.6104 -21.6098 -21.6091
   -21.6066 -21.6054 -21.6042 -21.6038 -21.6029 -21.6017 -21.6007 -21.6005
   -21.5996 -21.5981 -21.5968 -21.5955 -21.5948 -21.5933 -21.5922 -21.5906
   -21.5895 -21.5880 -21.5860 -21.5840 -21.5793 -21.5762 -21.5754 -21.5732
   -21.5707 -21.5700 -21.5690 -21.5678 -21.5667 -21.5665 -21.5629 -21.5626
   -21.5596 -21.5577 -21.5571 -21.5571 -21.5569 -21.5548 -21.5470 -21.5458
   -21.5451 -21.5414 -21.5385 -21.5379 -21.5333 -21.5312 -21.5302 -21.5284
[...]
Ge           14.3120449185        4.2240638150        6.3217621273
Ge           14.1993641857        6.0685614196        7.9944473866
Ge           12.1969888951        6.0641227495        9.4548525198
Ge           12.2487716758        4.0321974467       10.8726853523
Ge           14.3829913158        4.0696827144       12.2069667928
Ge           14.3364255213        6.1425476618       13.6708218791
Ge           12.1804453752        5.1490140217       14.4279140340

     Writing output data file ./out/ge.save/
     NEW-OLD atomic charge density approx. for the potential

     Self-consistent Calculation

[...]

     Threshold (ethr) on eigenvalues was too large:
     Diagonalizing with lowered threshold

     Davidson diagonalization with overlap
     ethr =  6.01E-09,  avg # of iterations =  4.5

[...]

     total energy              =  -11429.76629691 Ry
     estimated scf accuracy    <       0.00000002 Ry

     iteration # 10     ecut=    60.00 Ry     beta= 0.40
     Davidson diagonalization with overlap
     ethr =  2.78E-12,  avg # of iterations =  2.0

     End of self-consistent calculation

[...]

          k = 0.0000-1.0000 0.0000 (141742 PWs)   bands (ev):

   -22.0384 -22.0314 -22.0024 -21.9889 -21.9857 -21.9853 -21.9615 -21.9493
   -21.9483 -21.9441 -21.9177 -21.9092 -21.8710 -21.8652 -21.8634 -21.8628
   -21.8391 -21.8351 -21.8310 -21.8285 -21.8280 -21.8256 -21.8245 -21.8227
   -21.7929 -21.7907 -21.7860 -21.7843 -21.7622 -21.7607 -21.7578 -21.7527
   -21.7252 -21.7200 -21.7066 -21.6964 -21.6925 -21.6868 -21.6803 -21.6779
   -21.6760 -21.6730 -21.6723 -21.6704 -21.6682 -21.6668 -21.6660 -21.6611
   -21.6609 -21.6566 -21.6553 -21.6516 -21.6503 -21.6502 -21.6473 -21.6438
   -21.6380 -21.6368 -21.6319 -21.6307 -21.6296 -21.6272 -21.6253 -21.6241
   -21.6228 -21.6214 -21.6206 -21.6191 -21.6145 -21.6126 -21.6097 -21.6077
   -21.6068 -21.6031 -21.6014 -21.6007 -21.5957 -21.5895 -21.5893 -21.5891
   -21.5877 -21.5860 -21.5837 -21.5827 -21.5771 -21.5736 -21.5722 -21.5696
   -21.5667 -21.5644 -21.5640 -21.5621 -21.5614 -21.5607 -21.5596 -21.5573
   -21.5547 -21.5525 -21.5518 -21.5502 -21.5478 -21.5457 -21.5443 -21.5437
   -21.5409 -21.5398 -21.5389 -21.5364 -21.5339 -21.5328 -21.5303 -21.5292
   -21.5281 -21.5262 -21.5244 -21.5225 -21.5217 -21.5207 -21.5189 -21.5170
   -21.5154 -21.5141 -21.5130 -21.5116 -21.5107 -21.5082 -21.5073 -21.5058
   -21.5033 -21.5022 -21.5005 -21.4978 -21.4970 -21.4961 -21.4922 -21.4914
   -21.4909 -21.4896 -21.4886 -21.4875 -21.4856 -21.4846 -21.4832 -21.4826
   -21.4810 -21.4807 -21.4798 -21.4786 -21.4778 -21.4756 -21.4725 -21.4724
   -21.4710 -21.4697 -21.4681 -21.4674 -21.4666 -21.4652 -21.4646 -21.4629
   -21.4615 -21.4602 -21.4583 -21.4563 -21.4546 -21.4528 -21.4505 -21.4493
   -21.4475 -21.4469 -21.4456 -21.4453 -21.4441 -21.4427 -21.4412 -21.4408
   -21.4403 -21.4372 -21.4355 -21.4332 -21.4330 -21.4319 -21.4310 -21.4288
   -21.4272 -21.4261 -21.4259 -21.4232 -21.4225 -21.4213 -21.4183 -21.4156
   -21.4146 -21.4134 -21.4118 -21.4101 -21.4090 -21.4085 -21.4058 -21.4054
   -21.4025 -21.4023 -21.4010 -21.4002 -21.3993 -21.3957 -21.3947 -21.3935
   -21.3919 -21.3909 -21.3892 -21.3884 -21.3877 -21.3850 -21.3823 -21.3813
   -21.3795 -21.3791 -21.3782 -21.3765 -21.3739 -21.3730 -21.3721 -21.3708
   -21.3687 -21.3677 -21.3667 -21.3653 -21.3642 -21.3627 -21.3609 -21.3597
   -21.3590 -21.3576 -21.3551 -21.3528 -21.3514 -21.3513 -21.3488 -21.3484
   -21.3468 -21.3428 -21.3421 -21.3412 -21.3402 -21.3397 -21.3383 -21.3369
   -21.3356 -21.3337 -21.3321 -21.3309 -21.3285 -21.3265 -21.3254 -21.3237
   -21.3224 -21.3185 -21.3168 -21.3153 -21.3145 -21.3138 -21.3113 -21.3104
   -21.3088 -21.3067 -21.3063 -21.3039 -21.3020 -21.3011 -21.3000 -21.2972
   -21.2959 -21.2924 -21.2894 -21.2876 -21.2790 -21.2744 -21.2736 -21.2667
   -21.2518 -21.2471 -21.2457 -21.2423 -21.2415 -21.2404 -21.2398 -21.2391
   -21.2357 -21.2347 -21.2304 -21.2287 -21.2244 -21.2147 -21.2142 -21.2138
   -21.2116 -21.2110 -21.2019 -21.2009 -21.2003 -21.1990 -21.1969 -21.1934
   -21.1912 -21.1903 -21.1895 -21.1881 -21.1858 -21.1845 -21.1836 -21.1767
   -21.1751 -21.1717 -21.1681 -21.1462 -21.1433 -21.1353 -21.1217 -21.1075
    -8.6226  -8.4716  -8.1933  -8.1647  -8.0910  -8.0191  -8.0059  -7.9229
    -7.7139  -7.6524  -7.4544  -7.3972  -7.2243  -7.0447  -6.8514  -6.8188
    -6.7693  -6.7510  -6.7159  -6.7087  -6.6286  -6.6186  -6.5417  -6.4672
    -6.1445  -6.0772  -5.8799  -5.7011  -5.6607  -5.4486  -5.3923  -5.1842
    -5.1808  -4.9714  -4.7864  -4.6295  -4.4579  -4.3990  -4.0900  -4.0309
    -3.9905  -3.9822  -3.9671  -3.9328  -3.8854  -3.7785  -3.7192  -3.6934
    -3.5136  -3.4801  -3.1151  -2.9738  -2.8608  -2.7733  -2.5119  -2.4009
    -2.1519  -1.9349  -1.8653  -1.7298  -1.5740  -1.5158  -1.1727  -0.9579
    -0.7345  -0.6905  -0.5751  -0.5620  -0.5135  -0.4474  -0.4134  -0.3652
    -0.3586  -0.3189  -0.2511  -0.1888  -0.1182  -0.0493  -0.0320   0.0072
     0.0781   0.1652   0.2063   0.2303   0.3505   0.4007   0.5003   0.5556
     0.6278   0.6731   0.7700   0.9140   0.9647   0.9932   1.0162   1.0534
     1.0620   1.1612   1.1683   1.2179   1.2446   1.2635   1.3126   1.3368
     1.4030   1.4251   1.4287   1.4806   1.5677   1.6126   1.6587   1.6851
     1.7923   1.8753   1.9057   1.9589   2.0313   2.0723   2.1770   2.2549
     2.2920   2.3548   2.4017   2.4496   2.5670   2.6382   2.7674   2.8089
     3.2742   3.3668   3.4093   3.5042   3.6153   3.6795   3.7530   3.8065
     3.8946   4.0132   4.3178   4.3694   4.4773   4.5790   4.7214   4.7519
     4.7621   4.8398   4.9224   4.9623   4.9911   5.0454   5.0576   5.1177
     5.1433   5.1810   5.3322   5.4214   5.4432   5.4805   5.6248   5.6446
     5.7212   5.7529   5.7739   5.8025   5.8595   5.8898   5.9692   6.0540
     6.1344   6.1733   6.2020   6.2729   6.3208   6.3507   6.3655   6.4149
     6.5376   6.5838   6.6383   6.6873   6.7428   6.7904   6.8335   6.8955
     6.9329   6.9748   7.0198   7.0590   7.1016   7.1116   7.1167   7.1939
     7.3169   7.3716   7.4185   7.4419   7.4680   7.4770   7.5214   7.5602
     7.5955   7.6308   7.6718   7.7258   7.7627   7.7932   7.8045   7.8519
     7.8652   7.8718   7.8919   7.9273   7.9321   7.9855   8.0229   8.0481
     8.0533   8.0962

     the Fermi energy is     2.9508 ev

!    total energy              =  -11429.76629691 Ry
     estimated scf accuracy    <          7.3E-09 Ry
     smearing contrib. (-TS)   =      -0.00611454 Ry
     internal energy E=F+TS    =  -11429.76018238 Ry

     The total energy is F=E-TS. E is the sum of the following terms:
     one-electron contribution =  -32481.02268500 Ry
     hartree contribution      =   16645.63903074 Ry
     xc contribution           =   -2789.19872578 Ry
     ewald contribution        =    7194.82219767 Ry

     convergence has been achieved in  10 iterations

     Forces acting on atoms (cartesian axes, Ry/au):

     atom    1 type  1   force =     0.00030198   -0.00008957   -0.00091593
     atom    2 type  1   force =     0.00054325    0.00011493   -0.00001369
     atom    3 type  1   force =     0.00005172   -0.00033105   -0.00013222
     atom    4 type  1   force =     0.00060878    0.00045437   -0.00006734
     atom    5 type  1   force =     0.00007367   -0.00001464   -0.00015817
     atom    6 type  1   force =    -0.00028277   -0.00010267   -0.00005937
     atom    7 type  1   force =    -0.00011522    0.00022274    0.00011024
     atom    8 type  1   force =    -0.00016961   -0.00016148   -0.00055685
     atom    9 type  1   force =     0.00063708   -0.00040371    0.00032588
     atom   10 type  1   force =    -0.00033950   -0.00004171   -0.00043956
     atom   11 type  1   force =    -0.00013251    0.00071615   -0.00011793
     atom   12 type  1   force =    -0.00014407   -0.00018861    0.00008905
     atom   13 type  1   force =     0.00046444    0.00017906   -0.00023557
     atom   14 type  1   force =    -0.00023058   -0.00011574   -0.00017673
     atom   15 type  1   force =    -0.00034469    0.00033011    0.00053920
     atom   16 type  1   force =    -0.00056513   -0.00032188   -0.00003628
     atom   17 type  1   force =    -0.00002216    0.00039216    0.00037199
     atom   18 type  1   force =     0.00057798   -0.00038699   -0.00028976
     atom   19 type  1   force =    -0.00002324   -0.00047286   -0.00028732
     atom   20 type  1   force =    -0.00014151   -0.00007189   -0.00022148
     atom   21 type  1   force =    -0.00052839   -0.00003938    0.00032773
     atom   22 type  1   force =     0.00015012   -0.00027661   -0.00002262
     atom   23 type  1   force =    -0.00020739   -0.00000114    0.00052574
     atom   24 type  1   force =     0.00036782   -0.00037606    0.00073444
     atom   25 type  1   force =     0.00003291   -0.00011846    0.00014987
     atom   26 type  1   force =     0.00009471    0.00004668   -0.00019926
     atom   27 type  1   force =    -0.00069440    0.00068871   -0.00014371
     atom   28 type  1   force =     0.00030814    0.00002450   -0.00024265
     atom   29 type  1   force =    -0.00026685    0.00036151   -0.00024780
     atom   30 type  1   force =     0.00029404    0.00005432   -0.00039363
     atom   31 type  1   force =    -0.00002185    0.00023750    0.00034269
     atom   32 type  1   force =     0.00001656    0.00083905    0.00033139
     atom   33 type  1   force =    -0.00006012    0.00020013    0.00005387
     atom   34 type  1   force =     0.00026062   -0.00071050    0.00013397
     atom   35 type  1   force =     0.00028150   -0.00017876    0.00006753
     atom   36 type  1   force =    -0.00016380    0.00068153    0.00029233
     atom   37 type  1   force =    -0.00041386    0.00019082    0.00017999
     atom   38 type  1   force =    -0.00011581    0.00016105    0.00021097
     atom   39 type  1   force =     0.00023295   -0.00011537   -0.00048651
     atom   40 type  1   force =    -0.00033702   -0.00047929    0.00016376
     atom   41 type  1   force =     0.00020858    0.00003104    0.00030683
     atom   42 type  1   force =     0.00026096    0.00049495   -0.00009051
     atom   43 type  1   force =     0.00015441    0.00020242   -0.00058800
     atom   44 type  1   force =    -0.00011789   -0.00033459    0.00016795
     atom   45 type  1   force =     0.00039991   -0.00016096    0.00008553
     atom   46 type  1   force =    -0.00019708   -0.00006735   -0.00011973
     atom   47 type  1   force =    -0.00073468   -0.00025122    0.00061408
     atom   48 type  1   force =     0.00026713   -0.00022342    0.00032698
     atom   49 type  1   force =     0.00060776    0.00096266    0.00004558
     atom   50 type  1   force =    -0.00003971    0.00003835    0.00000565
     atom   51 type  1   force =    -0.00015916   -0.00049728    0.00037092
     atom   52 type  1   force =    -0.00006379    0.00057106    0.00047363
     atom   53 type  1   force =    -0.00015321    0.00023278    0.00003757
     atom   54 type  1   force =     0.00006108   -0.00019737    0.00030587
     atom   55 type  1   force =    -0.00067146   -0.00046162   -0.00032624
     atom   56 type  1   force =    -0.00026234   -0.00013515   -0.00021890
     atom   57 type  1   force =     0.00001374   -0.00061980   -0.00009043
     atom   58 type  1   force =     0.00055146    0.00017536   -0.00013521
     atom   59 type  1   force =    -0.00002746   -0.00007070    0.00031890
     atom   60 type  1   force =    -0.00017453   -0.00042191   -0.00032965
     atom   61 type  1   force =     0.00006825   -0.00096659   -0.00051880
     atom   62 type  1   force =     0.00047698    0.00049172   -0.00026909
     atom   63 type  1   force =    -0.00017221    0.00012904    0.00021277
     atom   64 type  1   force =    -0.00027451    0.00018167   -0.00009195

     Total force =     0.004729     Total SCF correction =     0.000517
     SCF correction compared to forces is large: reduce conv_thr to get better values
     Energy error            =      5.1E-05 Ry
     Gradient error          =      9.7E-04 Ry/Bohr

     bfgs converged in  23 scf cycles and  22 bfgs steps
     (criteria: energy <  1.0E-04 Ry, force <  1.0E-03 Ry/Bohr)

     End of BFGS Geometry Optimization

     Final energy             =  -11429.7662969139 Ry

     File ./out/ge.bfgs deleted, as requested
Begin final coordinates

ATOMIC_POSITIONS (angstrom)
Ge            0.1635537839       -1.0630455231        5.7055201332
Ge            2.2686590817        0.0715096033        6.3817562361
Ge            1.9520623111        2.0420271126        7.8862408929
Ge           -0.0565026991        2.0623186446        9.3285333006
Ge            0.0309678556        0.0597967788       10.8469006024
Ge            2.1656955046        0.0658148227       12.1927632018
Ge            2.0391807887        2.0829842638       13.6937331977
Ge           -0.0884233705        1.0467825172       14.4835795499
Ge            0.0166548774        4.7037648923        4.8488877340
Ge            1.9308741321        4.1152714078        6.4260930594
Ge            2.1026728309        6.1517745120        7.8862119067
Ge           -0.0083708996        6.2326441948        9.3094872855
Ge           -0.0091925549        4.1508634062       10.6523747904
Ge            1.9406172816        4.0848715724       12.1955235053
Ge            1.8834999472        6.2002913977       13.6393599175
Ge           -0.0418007467        6.7344136772       15.2828713077
Ge            4.2037382321        0.6703899143        4.8349273803
Ge            6.1517385884        0.0469098305        6.3735286644
Ge            6.2452261538        2.0389539542        7.8980512916
Ge            4.0956560040        2.1247345169        9.2374724851
Ge            4.1120370001        0.1174458193       10.6859176944
Ge            6.0755298600        0.0578026647       12.2068939999
Ge            5.9459422626        2.1205919737       13.7260831133
Ge            3.9812837611        2.7298771183       15.2672361086
Ge            4.0724344918        3.0886599039        5.6422867493
Ge            6.1768394410        4.1289752245        6.5046904724
Ge            5.9375257257        6.2091153202        7.8886261496
Ge            4.0348732007        6.1571615492        9.4525603042
Ge            4.0815507378        4.0836514211       10.8445079587
Ge            6.2212675098        4.0732558512       12.1880321040
Ge            6.1769975556        6.1594209222       13.6375225487
Ge            4.0079023246        5.1632304101       14.3821693176
Ge            8.1680802178       -0.5956884797        4.9071120820
Ge           10.1386521256       -0.0713251540        6.4438414138
Ge           10.2204673610        2.0589500490        7.7929762865
Ge            8.2487333724        2.0687163482        9.3465304516
Ge            8.2034313398        0.0522654762       10.8423856765
Ge           10.3360697908        0.0426131819       12.1785274861
Ge           10.2058106021        2.0810286796       13.6634821492
Ge            8.0648844481        1.0647416809       14.4487580439
Ge            8.3006145686        5.1645782814        5.6894958082
Ge           10.4251830305        4.1590835136        6.4147702308
Ge           10.1465646965        6.1297018127        8.0266251395
Ge            8.0195572587        6.2328928520        9.3135405677
Ge            8.1677106553        4.1608305683       10.6632097546
Ge           10.1130145223        4.1155983421       12.2069594527
Ge           10.0726397181        6.2098855184       13.6775943089
Ge            8.1018873525        6.7535434888       15.2595137522
Ge           12.2867458614       -1.0726011506        5.6628181793
Ge           14.3580639352       -0.0072200157        6.4532631384
Ge           14.2992907991        2.1480872861        7.7720264813
Ge           12.2651191080        2.0900103663        9.2328399255
Ge           12.2849276276        0.0542709831       10.6626325461
Ge           14.2267914344        0.0148562793       12.2105575428
Ge           14.1199201523        2.0881707830       13.7207167303
Ge           12.1468511116        2.6860992824       15.2713137989
Ge           12.3227729693        4.6752358071        4.7929016199
Ge           14.3120449185        4.2240638150        6.3217621273
Ge           14.1993641857        6.0685614196        7.9944473866
Ge           12.1969888951        6.0641227495        9.4548525198
Ge           12.2487716758        4.0321974467       10.8726853523
Ge           14.3829913158        4.0696827144       12.2069667928
Ge           14.3364255213        6.1425476618       13.6708218791
Ge           12.1804453752        5.1490140217       14.4279140340
End final coordinates

     Writing output data file ./out/ge.save/

     General routines

     Parallel routines

   This run was terminated on:  20:52:13  29Apr2025

   JOB DONE.