     Program PWSCF v.6.8 starts on 28Apr2025 at 10:44:47

     R & G space division:  proc/nbgrp/npool/nimage =      56

     Reading input from surface_relax.in
Warning: card &CELL ignored
Warning: card / ignored
Warning: card &FCP ignored
Warning: card / ignored
Warning: card &RISM ignored
Warning: card / ignored

     Current dimensions of program PWSCF are:
     Max number of different atomic species (ntypx) = 10
     Max number of k-points (npk) =  40000
     Max angular momentum in pseudopotentials (lmaxx) =  4

     gamma-point specific algorithms are used
     Found symmetry operation: I + (  0.0000  0.5000  0.0000)
     This is a supercell, fractional translations are disabled
     Message from routine setup:
     using ibrav=0 with symmetry is DISCOURAGED, use correct ibrav instead

     Using Slab Decomposition

     bravais-lattice index     =            0
     lattice parameter (alat)  =      15.1659  a.u.
     unit-cell volume          =    8388.9373 (a.u.)^3
     number of atoms/cell      =           32
     number of atomic types    =            1
     number of electrons       =       448.00
     number of Kohn-Sham states=          269
     kinetic-energy cutoff     =      60.0000  Ry
     charge density cutoff     =     240.0000  Ry
     scf convergence threshold =      1.0E-06
     mixing beta               =       0.4000
     number of iterations used =            8  plain     mixing
     energy convergence thresh.=      1.0E-04
     force convergence thresh. =      1.0E-03
     Exchange-correlation= PBE
                           (   1   4   3   4   0   0   0)
     nstep                     =           50

     celldm(1)=  15.165913  celldm(2)=   0.000000  celldm(3)=   0.000000
     celldm(4)=   0.000000  celldm(5)=   0.000000  celldm(6)=   0.000000

     crystal axes: (cart. coord. in units of alat)
               a(1) = (   1.000000   0.000000   0.000000 )
               a(2) = (   0.500000   0.866025   0.000000 )
               a(3) = (   0.000000   0.000000   2.776966 )

     reciprocal axes: (cart. coord. in units 2 pi/alat)
               b(1) = (  1.000000 -0.577351  0.000000 )
               b(2) = (  0.000000  1.154701  0.000000 )
               b(3) = (  0.000000  0.000000  0.360105 )

     PseudoPot. # 1 for Ge read from file:
     ./Ge.upf
     MD5 check sum: 087fa14d6c89b52166990835c3b338da
     Pseudo is Norm-conserving + core correction, Zval = 14.0
     Generated using ONCVPSP code by D. R. Hamann
     Using radial grid of 1560 points,  6 beta functions with:
                l(1) =   0
                l(2) =   0
                l(3) =   1
                l(4) =   1
                l(5) =   2
                l(6) =   2

     atomic species   valence    mass     pseudopotential
        Ge            14.00    72.63000     Ge( 1.00)

      2 Sym. Ops. (no inversion) found

   Cartesian axes

     site n.     atom                  positions (alat units)
         1           Ge  tau(   1) = (   0.1250001   0.0721688   0.9292038  )
         2           Ge  tau(   2) = (   0.1250000   0.0721688   0.6230176  )
         3           Ge  tau(   3) = (   0.3750002   0.2165064   1.3374521  )
         4           Ge  tau(   4) = (   0.3750001   0.2165064   1.0312659  )
         5           Ge  tau(   5) = (   0.6250003   0.3608439   1.7457004  )
         6           Ge  tau(   6) = (   0.6250002   0.3608439   1.4395142  )
         7           Ge  tau(   7) = (   0.1250003   0.0721688   2.1539487  )
         8           Ge  tau(   8) = (   0.1250002   0.0721688   1.8477625  )
         9           Ge  tau(   9) = (   0.3750002   0.5051815   0.9292038  )
        10           Ge  tau(  10) = (   0.3750001   0.5051815   0.6230176  )
        11           Ge  tau(  11) = (   0.6250003   0.6495191   1.3374521  )
        12           Ge  tau(  12) = (   0.6250003   0.6495191   1.0312659  )
        13           Ge  tau(  13) = (   0.8750004   0.7938566   1.7457004  )
        14           Ge  tau(  14) = (   0.8750004   0.7938566   1.4395142  )
        15           Ge  tau(  15) = (   0.3750004   0.5051815   2.1539487  )
        16           Ge  tau(  16) = (   0.3750003   0.5051815   1.8477625  )
        17           Ge  tau(  17) = (   0.6250001   0.0721688   0.9292038  )
        18           Ge  tau(  18) = (   0.6250000   0.0721688   0.6230176  )
        19           Ge  tau(  19) = (   0.8750002   0.2165064   1.3374521  )
        20           Ge  tau(  20) = (   0.8750001   0.2165064   1.0312659  )
        21           Ge  tau(  21) = (   1.1250003   0.3608439   1.7457004  )
        22           Ge  tau(  22) = (   1.1250002   0.3608439   1.4395142  )
        23           Ge  tau(  23) = (   0.6250003   0.0721688   2.1539487  )
        24           Ge  tau(  24) = (   0.6250002   0.0721688   1.8477625  )
        25           Ge  tau(  25) = (   0.8750002   0.5051815   0.9292038  )
        26           Ge  tau(  26) = (   0.8750001   0.5051815   0.6230176  )
        27           Ge  tau(  27) = (   1.1250003   0.6495191   1.3374521  )
        28           Ge  tau(  28) = (   1.1250003   0.6495191   1.0312659  )
        29           Ge  tau(  29) = (   1.3750004   0.7938566   1.7457004  )
        30           Ge  tau(  30) = (   1.3750004   0.7938566   1.4395142  )
        31           Ge  tau(  31) = (   0.8750004   0.5051815   2.1539487  )
        32           Ge  tau(  32) = (   0.8750003   0.5051815   1.8477625  )

     number of k points=     1  Gaussian smearing, width (Ry)=  0.0100
                       cart. coord. in units 2pi/alat
        k(    1) = (   0.0000000   0.0000000   0.0000000), wk =   2.0000000

     Initial potential from superposition of free atoms

     starting charge  447.97367, renormalised to  448.00000

     negative rho (up, down):  1.989E-05 0.000E+00
     Starting wfcs are  288 randomized atomic wfcs

     Self-consistent Calculation

     iteration #  1     ecut=    60.00 Ry     beta= 0.40
     Davidson diagonalization with overlap
     ethr =  1.00E-02,  avg # of iterations =  5.0

     Threshold (ethr) on eigenvalues was too large:
     Diagonalizing with lowered threshold

     Davidson diagonalization with overlap
     ethr =  2.54E-04,  avg # of iterations =  5.0

     negative rho (up, down):  6.209E-06 0.000E+00

     total energy              =   -5713.39249593 Ry
     estimated scf accuracy    <       1.24868252 Ry

[...]

     End of self-consistent calculation

          k = 0.0000 0.0000 0.0000 ( 32941 PWs)   bands (ev):

   -21.5850 -21.5850 -21.5849 -21.5745 -21.5745 -21.5745 -21.5743 -21.5743
   -21.5656 -21.5656 -21.5656 -21.5254 -21.5117 -21.5084 -21.5084 -21.4944
   -21.4944 -21.4944 -21.4589 -21.4589 -21.4589 -21.4184 -21.4184 -21.4184
   -21.4142 -21.4141 -21.4141 -21.4034 -21.4034 -21.4034 -21.3719 -21.3719
   -21.3610 -21.3610 -21.3610 -21.3592 -21.3592 -21.3576 -21.3576 -21.3576
   -21.3448 -21.3448 -21.3448 -21.3325 -21.3325 -21.3325 -21.3304 -21.3304
   -21.3304 -21.3274 -21.3274 -21.3098 -21.3097 -21.2948 -21.2948 -21.2948
   -21.2842 -21.2842 -21.2797 -21.2796 -21.2796 -21.2791 -21.2791 -21.2791
   -21.2706 -21.2706 -21.2635 -21.2635 -21.2635 -21.2574 -21.2574 -21.2574
   -21.2571 -21.2571 -21.2571 -21.2547 -21.2506 -21.2399 -21.2399 -21.2399
   -21.2175 -21.2152 -21.1711 -21.1711 -21.1711 -21.1700 -21.1699 -21.1699
   -21.1290 -21.1290 -21.1290 -21.1263 -21.1263 -21.1263 -21.1129 -21.1129
   -21.1129 -21.1095 -21.1095 -21.1095 -21.0941 -21.0941 -21.0930 -21.0930
   -21.0805 -21.0805 -21.0805 -21.0796 -21.0796 -21.0796 -21.0626 -21.0626
   -21.0605 -21.0605 -21.0591 -21.0591 -21.0591 -21.0575 -21.0575 -21.0575
   -21.0558 -21.0558 -21.0557 -21.0556 -21.0556 -21.0554 -21.0554 -21.0553
   -21.0541 -21.0541 -21.0277 -21.0277 -21.0277 -21.0263 -21.0263 -21.0263
   -20.9941 -20.9940 -20.9940 -20.9934 -20.9934 -20.9933 -20.9871 -20.9870
   -20.9870 -20.9852 -20.9852 -20.9852 -20.9846 -20.9846 -20.9821 -20.9821
   -20.9447 -20.9433 -20.9335 -20.9335 -20.9334 -20.9327 -20.9327 -20.9326
    -9.0982  -8.4434  -7.7519  -7.0919  -7.0919  -7.0919  -6.6421  -6.6421
    -6.6421  -6.0871  -6.0871  -6.0871  -5.2599  -5.2599  -5.2599  -4.8667
    -4.5596  -4.4271  -4.4271  -4.4271  -4.1072  -4.1072  -4.1072  -3.0026
    -3.0026  -3.0026  -2.9817  -2.9817  -2.9816  -2.6024  -0.6874   0.0088
     0.0088   0.0089   0.3650   0.3650   0.3650   0.5371   0.5371   0.5371
     1.1510   1.1511   1.1511   1.2661   1.6877   1.6877   1.6877   1.7989
     1.7989   1.7989   2.1540   2.1540   2.2130   2.2130   2.2130   2.6190
     2.6190   2.6190   2.6720   2.6720   2.8760   2.8760   2.8760   3.0939
     3.1198   3.1198   3.6319   4.1134   4.1173   4.3501   4.3501   4.3501
     4.7843   4.7843   4.7843   4.8865   4.8865   4.8865   5.4702   5.4702
     5.4702   5.5515   5.5515   5.5515   5.5545   5.5546   5.5546   5.8680
     5.8680   6.1914   6.1914   6.2535   6.8730   6.8730   7.0622   7.0622
     7.0622   7.1229   7.4533   7.4533   7.5547   7.5547   7.5572   7.5573
     7.5573   7.9775   7.9775   7.9775   8.5629

     the Fermi energy is     3.0746 ev

!    total energy              =   -5713.75221895 Ry
     estimated scf accuracy    <       0.00000049 Ry
     smearing contrib. (-TS)   =      -0.01764368 Ry
     internal energy E=F+TS    =   -5713.73457528 Ry

     The total energy is F=E-TS. E is the sum of the following terms:
     one-electron contribution =  -17131.05360421 Ry
     hartree contribution      =    8772.92803172 Ry
     xc contribution           =   -1394.23756723 Ry
     ewald contribution        =    4038.62856444 Ry

     convergence has been achieved in  12 iterations

     Forces acting on atoms (cartesian axes, Ry/au):

     atom    1 type  1   force =     0.00000736    0.00000425   -0.01931189
     atom    2 type  1   force =     0.00000175    0.00000101   -0.02097639
     atom    3 type  1   force =    -0.00000768   -0.00000443   -0.03478324
     atom    4 type  1   force =    -0.00001528   -0.00000882    0.03597406
     atom    5 type  1   force =     0.00002023    0.00001168   -0.03594765
     atom    6 type  1   force =     0.00001244    0.00000718    0.03492135
     atom    7 type  1   force =    -0.00000015   -0.00000009    0.02068479
     atom    8 type  1   force =    -0.00000138   -0.00000080    0.01943752
     atom    9 type  1   force =     0.00000944   -0.00001223   -0.01930138
     atom   10 type  1   force =     0.00000538   -0.00000295   -0.02097782
     atom   11 type  1   force =    -0.00001630    0.00001819   -0.03478298
     atom   12 type  1   force =    -0.00001396    0.00002390    0.03597010
     atom   13 type  1   force =     0.00000541   -0.00002529   -0.03595019
     atom   14 type  1   force =     0.00000891   -0.00001808    0.03492173
     atom   15 type  1   force =     0.00000513   -0.00000184    0.02068287
     atom   16 type  1   force =     0.00001713   -0.00001034    0.01944077
     atom   17 type  1   force =    -0.00000587    0.00001429   -0.01930138
     atom   18 type  1   force =     0.00000014    0.00000613   -0.02097782
     atom   19 type  1   force =     0.00000760   -0.00002321   -0.03478298
     atom   20 type  1   force =     0.00001372   -0.00002404    0.03597010
     atom   21 type  1   force =    -0.00001920    0.00001734   -0.03595019
     atom   22 type  1   force =    -0.00001120    0.00001675    0.03492173
     atom   23 type  1   force =     0.00000097    0.00000536    0.02068287
     atom   24 type  1   force =    -0.00000039    0.00002001    0.01944077
     atom   25 type  1   force =    -0.00001163   -0.00000671   -0.01930557
     atom   26 type  1   force =    -0.00000559   -0.00000323   -0.02098256
     atom   27 type  1   force =     0.00001743    0.00001007   -0.03478296
     atom   28 type  1   force =     0.00001598    0.00000922    0.03597501
     atom   29 type  1   force =    -0.00000481   -0.00000278   -0.03594995
     atom   30 type  1   force =    -0.00000932   -0.00000538    0.03492245
     atom   31 type  1   force =    -0.00000707   -0.00000408    0.02068108
     atom   32 type  1   force =    -0.00001916   -0.00001106    0.01943774

     Total force =     0.162901     Total SCF correction =     0.001029

     BFGS Geometry Optimization
     Energy error            =      0.0E+00 Ry
     Gradient error          =      3.6E-02 Ry/Bohr

     number of scf cycles    =   1
     number of bfgs steps    =   0

     energy             new  =   -5713.7522189549 Ry

     new trust radius        =       0.0359750100 bohr
     new conv_thr            =       0.0000010000 Ry

ATOMIC_POSITIONS (angstrom)
Ge            1.0031864910        0.5791896871        7.4470646172
Ge            1.0031831167        0.5791879158        4.9888997742
Ge            3.0095433236        1.7375599143       10.7152562355
Ge            3.0095388929        1.7375575331        8.2954153542
Ge            5.0159228812        2.8959432617       13.9910187565
Ge            5.0159183492        2.8959408220       11.5712369895
Ge            1.0031841393        0.5791876218       17.2973660582
Ge            1.0031830838        0.5791871892       14.8394220033
Ge            3.0095524775        4.0543051999        7.4470701771
Ge            3.0095499256        4.0543100547        4.9888990173
Ge            5.0159036445        5.2126961171       10.7152563729
Ge            5.0159044806        5.2126990798        8.2954132623
Ge            7.0222799260        6.3710479273       13.9910174123
Ge            7.0222813695        6.3710516904       11.5712371913
Ge            3.0095518222        4.0543109270       17.2973650421
Ge            3.0095577653        4.0543063699       14.8394237226
Ge            5.0159073459        0.5791949993        7.4470701771
Ge            5.0159101211        0.5791906272        4.9888990173
Ge            7.0222792638        1.7375499749       10.7152563729
Ge            7.0222820944        1.7375494830        8.2954132623
Ge            9.0286298712        2.8959462538       13.9910174123
Ge            9.0286336986        2.8959458876       11.5712371913
Ge            5.0159125908        0.5791905069       17.2973650421
Ge            5.0159114627        0.5791981977       14.8394237226
Ge            7.0222691874        4.0543081190        7.4470679584
Ge            7.0222719759        4.0543099059        4.9888965086
Ge            9.0286493545        5.2126918183       10.7152563844
Ge            9.0286481778        5.2126913158        8.2954158567
Ge           11.0350023727        6.3710598432       13.9910175393
Ge           11.0349995782        6.3710584067       11.5712375728
Ge            7.0222732197        4.0543097395       17.2973640967
Ge            7.0222664165        4.0543059885       14.8394221223

     Writing output data file ./out/ge.save/
     NEW-OLD atomic charge density approx. for the potential

[...]

     Total force =     0.150069     Total SCF correction =     0.003662
     Energy error            =      2.6E-02 Ry
     Gradient error          =      3.2E-02 Ry/Bohr

[...]

     energy             old  =   -5713.7522189549 Ry
     energy             new  =   -5713.7778138308 Ry

     CASE: energy            _new < energy            _old

     WARNING: bfgs curvature condition failed, Theta= 0.873
     new trust radius        =       0.0395725110 bohr
     new conv_thr            =       0.0000003173 Ry

[...]

     negative rho (up, down):  1.308E-06 0.000E+00

[...]

     Total force =     0.008573     Total SCF correction =     0.000545
     Energy error            =      4.4E-04 Ry
     Gradient error          =      2.4E-03 Ry/Bohr

     number of scf cycles    =  15
     number of bfgs steps    =  14

     energy             old  =   -5713.8969245346 Ry
     energy             new  =   -5713.8973663201 Ry

     CASE: energy            _new < energy            _old

     new trust radius        =       0.0099117360 bohr
     new conv_thr            =       0.0000000244 Ry

ATOMIC_POSITIONS (angstrom)
Ge            1.0032401079        0.5792206428        7.1606274411
Ge            1.0033712029        0.5792965073        4.6510168093
Ge            3.0095018101        1.7375359465       10.6332800423
Ge            3.0095016145        1.7375360104        8.2119864330
Ge            5.0159394684        2.8959528383       14.0744242984
Ge            5.0159386815        2.8959525609       11.6531544308
Ge            1.0033626645        0.5792906933       17.6352941981
Ge            1.0032434999        0.5792220705       15.1256434169
Ge            3.0096059121        4.0542102278        7.1607002440
Ge            3.0097718247        4.0539750159        4.6510857099
Ge            5.0158739349        5.2127662125       10.6331401761
Ge            5.0158941181        5.2127561606        8.2118391139
Ge            7.0223093622        6.3710057099       14.0745780830
Ge            7.0223163530        6.3710066083       11.6532949842
Ge            3.0098089082        4.0539544560       17.6353387214
Ge            3.0096054403        4.0542000875       15.1256904177
Ge            5.0158518149        0.5792887610        7.1607002440
Ge            5.0157309186        0.5795503168        4.6510857099
Ge            7.0223251134        1.7374891979       10.6331401761
Ge            7.0223263466        1.7375119684        8.2118391139
Ge            9.0286080280        2.8959928550       14.0745780830
Ge            9.0286121482        2.8959987252       11.6532949842
Ge            5.0157324209        0.5795913854       17.6353387214
Ge            5.0158432569        0.5792926267       15.1256904177
Ge            7.0222161542        4.0542775002        7.1607501097
Ge            7.0220519808        4.0541828917        4.6511394515
Ge            9.0286823465        5.2127108662       10.6330503740
Ge            9.0286636976        5.2127002762        8.2117198098
Ge           11.0349722753        6.3710424665       14.0746979688
Ge           11.0349684760        6.3710404499       11.6533866051
Ge            7.0220115308        4.0541586534       17.6354317664
Ge            7.0222070080        4.0542716890       15.1257841673

     Writing output data file ./out/ge.save/
     NEW-OLD atomic charge density approx. for the potential

     Self-consistent Calculation

[...]

     Threshold (ethr) on eigenvalues was too large:
     Diagonalizing with lowered threshold

     Davidson diagonalization with overlap
     ethr =  2.33E-08,  avg # of iterations =  4.0

[...]

     total energy              =   -5713.89746180 Ry
     estimated scf accuracy    <       0.00000006 Ry

     iteration #  9     ecut=    60.00 Ry     beta= 0.40
     Davidson diagonalization with overlap
     ethr =  1.30E-11,  avg # of iterations =  2.0

     End of self-consistent calculation

          k = 0.0000 0.0000 0.0000 ( 32941 PWs)   bands (ev):

   -21.3971 -21.3971 -21.3971 -21.3965 -21.3965 -21.3933 -21.3932 -21.3932
   -21.3863 -21.3863 -21.3863 -21.3817 -21.3543 -21.3360 -21.3360 -21.3188
   -21.3188 -21.3188 -21.2839 -21.2839 -21.2839 -21.2768 -21.2768 -21.2768
   -21.2574 -21.2574 -21.2574 -21.2563 -21.2563 -21.2563 -21.2039 -21.2039
   -21.2022 -21.2022 -21.2022 -21.1764 -21.1764 -21.1700 -21.1700 -21.1699
   -21.1672 -21.1672 -21.1672 -21.1621 -21.1614 -21.1556 -21.1556 -21.1556
   -21.1505 -21.1505 -21.1505 -21.1500 -21.1500 -21.1481 -21.1481 -21.1481
   -21.1477 -21.1477 -21.1465 -21.1465 -21.1465 -21.1457 -21.1457 -21.1436
   -21.1436 -21.1431 -21.1431 -21.1430 -21.1413 -21.1413 -21.1413 -21.1392
   -21.1392 -21.1392 -21.1175 -21.1175 -21.1175 -21.1134 -21.1134 -21.1134
   -21.1115 -21.1115 -21.1072 -21.1072 -21.1044 -21.1044 -21.1044 -21.1019
   -21.1019 -21.1019 -21.0848 -21.0848 -21.0848 -21.0842 -21.0842 -21.0842
   -21.0724 -21.0724 -21.0712 -21.0712 -21.0688 -21.0688 -21.0688 -21.0683
   -21.0683 -21.0683 -21.0632 -21.0632 -21.0632 -21.0546 -21.0546 -21.0546
   -21.0468 -21.0418 -21.0418 -21.0418 -21.0409 -21.0369 -21.0369 -21.0369
   -20.9898 -20.9898 -20.9898 -20.9896 -20.9896 -20.9896 -20.9672 -20.9672
   -20.9672 -20.9669 -20.9669 -20.9669 -20.9635 -20.9635 -20.9635 -20.9618
   -20.9618 -20.9618 -20.9585 -20.9562 -20.9522 -20.9522 -20.9517 -20.9517
   -20.9340 -20.9340 -20.9340 -20.9337 -20.9337 -20.9337 -20.9068 -20.9068
   -20.9063 -20.9063 -20.9005 -20.9005 -20.9005 -20.9005 -20.9004 -20.9004
    -8.5875  -7.9220  -7.2953  -6.6960  -6.6960  -6.6960  -6.2099  -6.2099
    -6.2099  -5.6416  -5.6415  -5.6415  -5.0260  -5.0260  -5.0260  -4.8870
    -4.5791  -4.1096  -4.1095  -4.1095  -3.6349  -3.6349  -3.6349  -2.9274
    -2.9264  -2.9264  -2.9264  -2.8409  -2.8409  -2.8409  -1.1149   0.0744
     0.0744   0.0744   0.3067   0.3067   0.3068   0.8454   1.1306   1.1306
     1.1306   1.6502   1.6502   1.6502   1.7656   1.7657   1.7657   2.1324
     2.1324   2.1324   2.2527   2.2528   2.2528   2.5397   2.5397   2.5397
     2.6222   2.6796   2.6796   2.6796   2.6941   2.6941   3.2609   3.2609
     3.7045   3.7045   4.1394   4.3909   4.5667   4.5667   4.5668   4.7360
     4.9333   4.9333   4.9333   5.0650   5.0650   5.0650   5.3087   5.3087
     5.3087   5.4277   5.4277   5.4277   5.5183   5.5183   5.5183   5.9247
     5.9247   6.2608   6.2608   6.2922   6.7373   6.9633   6.9633   6.9633
     6.9718   6.9718   7.2901   7.2902   7.2902   7.6240   7.6241   7.6241
     7.6664   7.6664   7.6982   7.6982   7.7093

     the Fermi energy is     3.4827 ev

!    total energy              =   -5713.89746181 Ry
     estimated scf accuracy    <          7.5E-09 Ry
     smearing contrib. (-TS)   =      -0.00158206 Ry
     internal energy E=F+TS    =   -5713.89587975 Ry

     The total energy is F=E-TS. E is the sum of the following terms:
     one-electron contribution =  -14852.74665190 Ry
     hartree contribution      =    7635.30939691 Ry
     xc contribution           =   -1393.31264808 Ry
     ewald contribution        =    2896.85402332 Ry

     convergence has been achieved in   9 iterations

     Forces acting on atoms (cartesian axes, Ry/au):

     atom    1 type  1   force =     0.00000202    0.00000117    0.00045454
     atom    2 type  1   force =     0.00001294    0.00000747   -0.00059372
     atom    3 type  1   force =    -0.00000140   -0.00000081   -0.00047823
     atom    4 type  1   force =    -0.00000051   -0.00000029    0.00051472
     atom    5 type  1   force =     0.00000607    0.00000350   -0.00051668
     atom    6 type  1   force =     0.00000764    0.00000441    0.00048328
     atom    7 type  1   force =     0.00001261    0.00000728    0.00058897
     atom    8 type  1   force =    -0.00000147   -0.00000085   -0.00044668
     atom    9 type  1   force =     0.00000087   -0.00000282    0.00045304
     atom   10 type  1   force =     0.00001462   -0.00002378   -0.00059523
     atom   11 type  1   force =    -0.00000236    0.00000212   -0.00046856
     atom   12 type  1   force =    -0.00000664    0.00000468    0.00051682
     atom   13 type  1   force =     0.00000360   -0.00000891   -0.00051567
     atom   14 type  1   force =     0.00000403   -0.00001039    0.00047800
     atom   15 type  1   force =     0.00001648   -0.00002429    0.00058751
     atom   16 type  1   force =     0.00000260    0.00000041   -0.00045149
     atom   17 type  1   force =    -0.00000201    0.00000217    0.00045304
     atom   18 type  1   force =    -0.00001328    0.00002455   -0.00059523
     atom   19 type  1   force =     0.00000065   -0.00000311   -0.00046856
     atom   20 type  1   force =     0.00000073   -0.00000809    0.00051682
     atom   21 type  1   force =    -0.00000592    0.00000757   -0.00051567
     atom   22 type  1   force =    -0.00000698    0.00000868    0.00047800
     atom   23 type  1   force =    -0.00001280    0.00002642    0.00058751
     atom   24 type  1   force =     0.00000165    0.00000204   -0.00045149
     atom   25 type  1   force =    -0.00000110   -0.00000064    0.00044810
     atom   26 type  1   force =    -0.00001445   -0.00000834   -0.00059886
     atom   27 type  1   force =     0.00000237    0.00000137   -0.00046897
     atom   28 type  1   force =     0.00000693    0.00000400    0.00052011
     atom   29 type  1   force =    -0.00000363   -0.00000209   -0.00051944
     atom   30 type  1   force =    -0.00000438   -0.00000253    0.00047879
     atom   31 type  1   force =    -0.00001640   -0.00000947    0.00058331
     atom   32 type  1   force =    -0.00000251   -0.00000145   -0.00045811

     Total force =     0.002895     Total SCF correction =     0.000538
     SCF correction compared to forces is large: reduce conv_thr to get better values
     Energy error            =      9.5E-05 Ry
     Gradient error          =      6.0E-04 Ry/Bohr

     bfgs converged in  16 scf cycles and  15 bfgs steps
     (criteria: energy <  1.0E-04 Ry, force <  1.0E-03 Ry/Bohr)

     End of BFGS Geometry Optimization

     Final energy             =   -5713.8974618070 Ry

     File ./out/ge.bfgs deleted, as requested
Begin final coordinates

ATOMIC_POSITIONS (angstrom)
Ge            1.0032401079        0.5792206428        7.1606274411
Ge            1.0033712029        0.5792965073        4.6510168093
Ge            3.0095018101        1.7375359465       10.6332800423
Ge            3.0095016145        1.7375360104        8.2119864330
Ge            5.0159394684        2.8959528383       14.0744242984
Ge            5.0159386815        2.8959525609       11.6531544308
Ge            1.0033626645        0.5792906933       17.6352941981
Ge            1.0032434999        0.5792220705       15.1256434169
Ge            3.0096059121        4.0542102278        7.1607002440
Ge            3.0097718247        4.0539750159        4.6510857099
Ge            5.0158739349        5.2127662125       10.6331401761
Ge            5.0158941181        5.2127561606        8.2118391139
Ge            7.0223093622        6.3710057099       14.0745780830
Ge            7.0223163530        6.3710066083       11.6532949842
Ge            3.0098089082        4.0539544560       17.6353387214
Ge            3.0096054403        4.0542000875       15.1256904177
Ge            5.0158518149        0.5792887610        7.1607002440
Ge            5.0157309186        0.5795503168        4.6510857099
Ge            7.0223251134        1.7374891979       10.6331401761
Ge            7.0223263466        1.7375119684        8.2118391139
Ge            9.0286080280        2.8959928550       14.0745780830
Ge            9.0286121482        2.8959987252       11.6532949842
Ge            5.0157324209        0.5795913854       17.6353387214
Ge            5.0158432569        0.5792926267       15.1256904177
Ge            7.0222161542        4.0542775002        7.1607501097
Ge            7.0220519808        4.0541828917        4.6511394515
Ge            9.0286823465        5.2127108662       10.6330503740
Ge            9.0286636976        5.2127002762        8.2117198098
Ge           11.0349722753        6.3710424665       14.0746979688
Ge           11.0349684760        6.3710404499       11.6533866051
Ge            7.0220115308        4.0541586534       17.6354317664
Ge            7.0222070080        4.0542716890       15.1257841673
End final coordinates

     Writing output data file ./out/ge.save/

     General routines

     Parallel routines

   This run was terminated on:  10:46:55  28Apr2025

   JOB DONE.