     Program PWSCF v.6.8 starts on 28Apr2025 at 22:51: 5

     R & G space division:  proc/nbgrp/npool/nimage =      56

     Reading input from surface_relax.in
Warning: card &CELL ignored
Warning: card / ignored
Warning: card &FCP ignored
Warning: card / ignored
Warning: card &RISM ignored
Warning: card / ignored

     Current dimensions of program PWSCF are:
     Max number of different atomic species (ntypx) = 10
     Max number of k-points (npk) =  40000
     Max angular momentum in pseudopotentials (lmaxx) =  4

     File ./out/ge.update deleted, as requested

     File ./out/ge.bfgs deleted, as requested

     Using Slab Decomposition

     bravais-lattice index     =            0
     lattice parameter (alat)  =      15.4202  a.u.
     unit-cell volume          =    9030.6760 (a.u.)^3
     number of atoms/cell      =           32
     number of atomic types    =            1
     number of electrons       =       448.00
     number of Kohn-Sham states=          269
     kinetic-energy cutoff     =      60.0000  Ry
     charge density cutoff     =     240.0000  Ry
     scf convergence threshold =      1.0E-06
     mixing beta               =       0.4000
     number of iterations used =            8  plain     mixing
     energy convergence thresh.=      1.0E-04
     force convergence thresh. =      1.0E-03
     Exchange-correlation= PBE
                           (   1   4   3   4   0   0   0)
     nstep                     =          100

     celldm(1)=  15.420188  celldm(2)=   0.000000  celldm(3)=   0.000000
     celldm(4)=   0.000000  celldm(5)=   0.000000  celldm(6)=   0.000000

     crystal axes: (cart. coord. in units of alat)
               a(1) = (   1.000000   0.000000   0.000000 )
               a(2) = (   0.000000   1.000000   0.000000 )
               a(3) = (   0.000000   0.000000   2.462925 )

     reciprocal axes: (cart. coord. in units 2 pi/alat)
               b(1) = (  1.000000  0.000000  0.000000 )
               b(2) = (  0.000000  1.000000  0.000000 )
               b(3) = (  0.000000  0.000000  0.406021 )

     PseudoPot. # 1 for Ge read from file:
     ./Ge.upf
     MD5 check sum: 087fa14d6c89b52166990835c3b338da
     Pseudo is Norm-conserving + core correction, Zval = 14.0
     Generated using ONCVPSP code by D. R. Hamann
     Using radial grid of 1560 points,  6 beta functions with:
                l(1) =   0
                l(2) =   0
                l(3) =   1
                l(4) =   1
                l(5) =   2
                l(6) =   2

     atomic species   valence    mass     pseudopotential
        Ge            14.00    72.63000     Ge( 1.00)

     No symmetry found

   Cartesian axes

     site n.     atom                  positions (alat units)
         1           Ge  tau(   1) = (   0.0006579   0.0002316   0.6146089  )
         2           Ge  tau(   2) = (   0.2492290   0.0015915   0.7881708  )
         3           Ge  tau(   3) = (   0.2509735   0.2479230   0.9673861  )
         4           Ge  tau(   4) = (   0.0022799   0.2516099   1.1428956  )
         5           Ge  tau(   5) = (   0.0017328   0.0009687   1.3180080  )
         6           Ge  tau(   6) = (   0.2488859   0.0008379   1.4963186  )
         7           Ge  tau(   7) = (   0.2504302   0.2476046   1.6752129  )
         8           Ge  tau(   8) = (   0.0000106   0.2507294   1.8510288  )
         9           Ge  tau(   9) = (   0.0013474   0.4980750   0.6133805  )
        10           Ge  tau(  10) = (   0.2491558   0.4992696   0.7885974  )
        11           Ge  tau(  11) = (   0.2502217   0.7511647   0.9640707  )
        12           Ge  tau(  12) = (  -0.0000107   0.7519111   1.1407438  )
        13           Ge  tau(  13) = (   0.0020278   0.4980423   1.3195100  )
        14           Ge  tau(  14) = (   0.2480160   0.4996182   1.4970435  )
        15           Ge  tau(  15) = (   0.2495675   0.7483160   1.6746454  )
        16           Ge  tau(  16) = (  -0.0008449   0.7509935   1.8492273  )
        17           Ge  tau(  17) = (   0.5018313  -0.0006294   0.6146303  )
        18           Ge  tau(  18) = (   0.7520478   0.0011843   0.7890738  )
        19           Ge  tau(  19) = (   0.7484109   0.2482381   0.9647293  )
        20           Ge  tau(  20) = (   0.4981430   0.2495704   1.1446072  )
        21           Ge  tau(  21) = (   0.4979271  -0.0024013   1.3197709  )
        22           Ge  tau(  22) = (   0.7481730   0.0007017   1.4981056  )
        23           Ge  tau(  23) = (   0.7521418   0.2488297   1.6742089  )
        24           Ge  tau(  24) = (   0.5021233   0.2497893   1.8484767  )
        25           Ge  tau(  25) = (   0.5013448   0.4991119   0.6103237  )
        26           Ge  tau(  26) = (   0.7524456   0.5013806   0.7903216  )
        27           Ge  tau(  27) = (   0.7494129   0.7500178   0.9664466  )
        28           Ge  tau(  28) = (   0.5008607   0.7522046   1.1416660  )
        29           Ge  tau(  29) = (   0.5000856   0.5003606   1.3196378  )
        30           Ge  tau(  30) = (   0.7524038   0.4996151   1.4990026  )
        31           Ge  tau(  31) = (   0.7497966   0.7489798   1.6711807  )
        32           Ge  tau(  32) = (   0.4998451   0.7486501   1.8506399  )

     number of k points=     4  Gaussian smearing, width (Ry)=  0.0100
                       cart. coord. in units 2pi/alat
        k(    1) = (   0.0000000   0.0000000   0.0000000), wk =   0.5000000
        k(    2) = (   0.0000000  -0.5000000   0.0000000), wk =   0.5000000
        k(    3) = (  -0.5000000  -0.5000000   0.0000000), wk =   0.5000000
        k(    4) = (  -0.5000000   0.0000000   0.0000000), wk =   0.5000000

     Initial potential from superposition of free atoms

     starting charge  447.97367, renormalised to  448.00000

     negative rho (up, down):  2.455E-05 0.000E+00
     Starting wfcs are  288 randomized atomic wfcs

     Self-consistent Calculation

     iteration #  1     ecut=    60.00 Ry     beta= 0.40
     Davidson diagonalization with overlap
     ethr =  1.00E-02,  avg # of iterations =  3.0

     Threshold (ethr) on eigenvalues was too large:
     Diagonalizing with lowered threshold

     Davidson diagonalization with overlap
     ethr =  2.27E-04,  avg # of iterations =  8.2

     negative rho (up, down):  7.447E-06 0.000E+00

     total energy              =   -5714.30165499 Ry
     estimated scf accuracy    <       1.12194852 Ry

[...]

     iteration #  8     ecut=    60.00 Ry     beta= 0.40
     Davidson diagonalization with overlap
     c_bands:  1 eigenvalues not converged
     ethr =  1.78E-06,  avg # of iterations = 12.8

[...]

     End of self-consistent calculation

          k = 0.0000 0.0000 0.0000 ( 70733 PWs)   bands (ev):

   -21.8673 -21.8643 -21.8605 -21.8561 -21.8526 -21.8498 -21.8454 -21.8353
   -21.8350 -21.8330 -21.8263 -21.8247 -21.8228 -21.8201 -21.8154 -21.8106
   -21.8103 -21.8098 -21.8070 -21.8015 -21.7929 -21.7896 -21.7876 -21.7839
   -21.7827 -21.7824 -21.7791 -21.7756 -21.7730 -21.7688 -21.7679 -21.7641
   -21.7587 -21.7502 -21.7469 -21.7461 -21.7441 -21.7431 -21.7426 -21.7396
   -21.7355 -21.7336 -21.7305 -21.7213 -21.7086 -21.7060 -21.7041 -21.7022
   -21.7013 -21.7012 -21.6981 -21.6931 -21.6897 -21.6873 -21.6812 -21.6792
   -21.6777 -21.6768 -21.6728 -21.6725 -21.6715 -21.6674 -21.6650 -21.6613
   -21.6602 -21.6559 -21.6551 -21.6536 -21.6472 -21.6463 -21.6443 -21.6435
   -21.6351 -21.6343 -21.6341 -21.6323 -21.6321 -21.6317 -21.6304 -21.6294
   -21.6285 -21.6238 -21.6223 -21.6212 -21.6170 -21.6162 -21.6154 -21.6152
   -21.6140 -21.6132 -21.6111 -21.6106 -21.6102 -21.6080 -21.6056 -21.6014
   -21.6000 -21.5984 -21.5870 -21.5856 -21.5831 -21.5800 -21.5782 -21.5763
   -21.5733 -21.5705 -21.5675 -21.5655 -21.5620 -21.5550 -21.5498 -21.5475
   -21.5468 -21.5442 -21.5423 -21.5386 -21.5309 -21.5283 -21.5262 -21.5167
   -21.4536 -21.4524 -21.4387 -21.4334 -21.4298 -21.4295 -21.4254 -21.4221
   -21.4211 -21.4172 -21.4140 -21.4079 -21.4068 -21.4058 -21.3999 -21.3980
   -21.3941 -21.3895 -21.3829 -21.3815 -21.3812 -21.3809 -21.3755 -21.3744
   -21.3721 -21.3691 -21.3668 -21.3633 -21.3610 -21.3589 -21.3575 -21.3556
   -21.3417 -21.3375 -21.3287 -21.3275 -21.3233 -21.3202 -21.3072 -21.3014
    -9.0317  -8.3801  -7.4552  -7.4262  -7.4055  -7.3828  -7.3478  -7.2706
    -7.0414  -7.0311  -6.1079  -5.6132  -5.5781  -5.5571  -5.5160  -5.3824
    -5.3682  -5.1923  -5.1316  -4.7331  -4.7310  -4.5210  -3.9555  -3.9368
    -3.8677  -3.7515  -3.4628  -2.7902  -2.7573  -2.6894  -0.7621  -0.2906
    -0.2585  -0.2523  -0.2221  -0.0055   0.0255   0.0538   0.0853   0.1707
     0.1871   0.4422   0.4665   1.0676   1.1429   1.1681   1.2344   1.4103
     1.6957   1.7114   1.7448   1.7696   1.8035   1.8241   1.8456   1.8900
     1.9075   1.9126   2.0015   2.0175   2.1641   2.3421   2.3516   2.3634
     2.7549   2.8449   2.8881   3.2615   3.7224   3.9538   4.0073   4.3265
     4.3502   4.4909   4.5648   4.5777   4.6177   4.6287   4.6496   4.6766
     4.9350   4.9502   4.9666   5.0260   5.0494   5.0599   5.2065   5.2569
     5.2966   5.3875   6.1995   6.2220   6.2765   6.7579   6.7913   7.0120
     7.0834   7.1494   7.1718   7.1826   7.1865   7.2220   7.2923   7.3616
     7.4614   7.6181   7.6566   7.6733   7.7626

[...]

          k =-0.5000-0.5000 0.0000 ( 70852 PWs)   bands (ev):

[...]

     the Fermi energy is     2.6149 ev

!    total energy              =   -5714.57453585 Ry
     estimated scf accuracy    <       0.00000032 Ry
     smearing contrib. (-TS)   =      -0.01262768 Ry
     internal energy E=F+TS    =   -5714.56190818 Ry

     The total energy is F=E-TS. E is the sum of the following terms:
     one-electron contribution =  -15339.28796608 Ry
     hartree contribution      =    7870.11366755 Ry
     xc contribution           =   -1394.07920906 Ry
     ewald contribution        =    3148.69159941 Ry

     convergence has been achieved in  14 iterations

     Forces acting on atoms (cartesian axes, Ry/au):

     atom    1 type  1   force =    -0.00065110    0.00050242   -0.01493170
     atom    2 type  1   force =     0.00508774   -0.00183910    0.00974012
     atom    3 type  1   force =    -0.00105595    0.00697225   -0.00395658
     atom    4 type  1   force =    -0.00835560   -0.00532974    0.00047802
     atom    5 type  1   force =    -0.00862659    0.00035015   -0.00023496
     atom    6 type  1   force =     0.00046383   -0.00697147    0.00257118
     atom    7 type  1   force =    -0.00024732    0.00503528   -0.01095434
     atom    8 type  1   force =     0.00253533    0.00050677    0.01134159
     atom    9 type  1   force =    -0.00283547   -0.00091530   -0.01138608
     atom   10 type  1   force =     0.00792252   -0.00123418    0.01066013
     atom   11 type  1   force =     0.00089369   -0.00235058    0.00141151
     atom   12 type  1   force =     0.00167025   -0.00681505    0.01011495
     atom   13 type  1   force =    -0.00600772    0.01114368   -0.00754425
     atom   14 type  1   force =     0.00802344   -0.00354734    0.00183504
     atom   15 type  1   force =     0.00103026    0.00447389   -0.01157821
     atom   16 type  1   force =    -0.00112892    0.00008777    0.00871298
[...]
Ge           -0.0101554201        6.1652815532        9.4334567789
Ge           -0.0043518257        4.0334568075       10.6586587836
Ge            1.9380545243        4.0888399046       12.1993095324
Ge            2.0964709717        6.1000714980       13.6788904607
Ge           -0.0357607396        7.1508812598       14.4362613397
Ge            4.1239931067       -1.0273016764        5.6596022453
Ge            6.2459558346        0.0303683285        6.3998518712
Ge            6.0186995194        2.0262750672        7.8949929079
Ge            4.0833947952        2.0856721844        9.4397593731
Ge            4.0908465042       -0.0489236366       10.6610014648
Ge            6.0318307046        0.0093887358       12.2075286664
Ge            6.1879960203        2.0233838559       13.6873484116
Ge            4.0502890675        3.0609867896       14.4355832559
Ge            4.1154335666        4.6853119651        4.8149212360
Ge            6.0661484704        4.0920877520        6.4131611382
Ge            6.2123846069        6.1080819505        7.8845297270
Ge            4.0715151115        6.0729044856        9.2360283641
Ge            4.0815496160        4.1287253994       10.8583035300
Ge            6.2207154958        4.0913538512       12.2040231246
Ge            6.0041758643        6.0882258323       13.6975008319
Ge            4.0441974207        5.5074629645       15.2823988378

     Writing output data file ./out/ge.save/
     NEW-OLD atomic charge density approx. for the potential

[...]

     iteration #  6     ecut=    60.00 Ry     beta= 0.40
     Davidson diagonalization with overlap

     Program PWSCF v.6.8 starts on 29Apr2025 at  6: 6:16

     R & G space division:  proc/nbgrp/npool/nimage =      56

     Reading input from surface_relax.in
Warning: card &CELL ignored
Warning: card / ignored
Warning: card &FCP ignored
Warning: card / ignored
Warning: card &RISM ignored
Warning: card / ignored

     Current dimensions of program PWSCF are:
     Max number of different atomic species (ntypx) = 10
     Max number of k-points (npk) =  40000
     Max angular momentum in pseudopotentials (lmaxx) =  4

     File ./out/ge.update deleted, as requested

     File ./out/ge.bfgs deleted, as requested

     Using Slab Decomposition

     bravais-lattice index     =            0
     lattice parameter (alat)  =      15.4202  a.u.
     unit-cell volume          =    9030.6760 (a.u.)^3
     number of atoms/cell      =           32
     number of atomic types    =            1
     number of electrons       =       448.00
     number of Kohn-Sham states=          269
     kinetic-energy cutoff     =      60.0000  Ry
     charge density cutoff     =     240.0000  Ry
     scf convergence threshold =      1.0E-06
     mixing beta               =       0.4000
     number of iterations used =            8  plain     mixing
     energy convergence thresh.=      1.0E-04
     force convergence thresh. =      1.0E-03
     Exchange-correlation= PBE
                           (   1   4   3   4   0   0   0)
     nstep                     =          100

     celldm(1)=  15.420188  celldm(2)=   0.000000  celldm(3)=   0.000000
     celldm(4)=   0.000000  celldm(5)=   0.000000  celldm(6)=   0.000000

     crystal axes: (cart. coord. in units of alat)
               a(1) = (   1.000000   0.000000   0.000000 )
               a(2) = (   0.000000   1.000000   0.000000 )
               a(3) = (   0.000000   0.000000   2.462925 )

     reciprocal axes: (cart. coord. in units 2 pi/alat)
               b(1) = (  1.000000  0.000000  0.000000 )
               b(2) = (  0.000000  1.000000  0.000000 )
               b(3) = (  0.000000  0.000000  0.406021 )

     PseudoPot. # 1 for Ge read from file:
     ./Ge.upf
     MD5 check sum: 087fa14d6c89b52166990835c3b338da
     Pseudo is Norm-conserving + core correction, Zval = 14.0
     Generated using ONCVPSP code by D. R. Hamann
     Using radial grid of 1560 points,  6 beta functions with:
                l(1) =   0
                l(2) =   0
                l(3) =   1
                l(4) =   1
                l(5) =   2
                l(6) =   2

     atomic species   valence    mass     pseudopotential
        Ge            14.00    72.63000     Ge( 1.00)

     No symmetry found

   Cartesian axes

     site n.     atom                  positions (alat units)
         1           Ge  tau(   1) = (   0.0054197   0.0744903   0.5895533  )
         2           Ge  tau(   2) = (   0.2435298   0.0016541   0.7866702  )
         3           Ge  tau(   3) = (   0.2623334   0.2485008   0.9677097  )
         4           Ge  tau(   4) = (  -0.0003124   0.2439589   1.1324001  )
         5           Ge  tau(   5) = (   0.0014018   0.0054077   1.3305763  )
         6           Ge  tau(   6) = (   0.2638656   0.0004569   1.4951033  )
         7           Ge  tau(   7) = (   0.2362359   0.2464030   1.6766116  )
         8           Ge  tau(   8) = (  -0.0025407   0.1758955   1.8732789  )
         9           Ge  tau(   9) = (   0.0053085   0.3741268   0.6931907  )
        10           Ge  tau(  10) = (   0.2648758   0.5034116   0.7852572  )
        11           Ge  tau(  11) = (   0.2362850   0.7485645   0.9675857  )
        12           Ge  tau(  12) = (  -0.0012445   0.7555481   1.1560591  )
        13           Ge  tau(  13) = (  -0.0005333   0.4942954   1.3062062  )
        14           Ge  tau(  14) = (   0.2375063   0.5010826   1.4950112  )
        15           Ge  tau(  15) = (   0.2569201   0.7475567   1.6763321  )
        16           Ge  tau(  16) = (  -0.0043824   0.8763322   1.7691470  )
        17           Ge  tau(  17) = (   0.5053906  -0.1258946   0.6935777  )
        18           Ge  tau(  18) = (   0.7654346   0.0037216   0.7842944  )
        19           Ge  tau(  19) = (   0.7375846   0.2483177   0.9675222  )
        20           Ge  tau(  20) = (   0.5004153   0.2555967   1.1568315  )
        21           Ge  tau(  21) = (   0.5013285  -0.0059955   1.3064933  )
        22           Ge  tau(  22) = (   0.7391938   0.0011506   1.4960184  )
        23           Ge  tau(  23) = (   0.7583317   0.2479633   1.6773686  )
        24           Ge  tau(  24) = (   0.4963582   0.3751204   1.7690639  )
        25           Ge  tau(  25) = (   0.5043416   0.5741795   0.5900630  )
        26           Ge  tau(  26) = (   0.7433994   0.5014806   0.7859254  )
        27           Ge  tau(  27) = (   0.7613205   0.7485383   0.9662399  )
        28           Ge  tau(  28) = (   0.4989594   0.7442274   1.1318645  )
        29           Ge  tau(  29) = (   0.5001892   0.5059705   1.3306725  )
        30           Ge  tau(  30) = (   0.7623414   0.5013907   1.4955888  )
        31           Ge  tau(  31) = (   0.7358048   0.7461050   1.6786128  )
        32           Ge  tau(  32) = (   0.4956117   0.6749332   1.8728402  )

     number of k points=     4  Gaussian smearing, width (Ry)=  0.0100
                       cart. coord. in units 2pi/alat
        k(    1) = (   0.0000000   0.0000000   0.0000000), wk =   0.5000000
        k(    2) = (   0.0000000  -0.5000000   0.0000000), wk =   0.5000000
        k(    3) = (  -0.5000000  -0.5000000   0.0000000), wk =   0.5000000
        k(    4) = (  -0.5000000   0.0000000   0.0000000), wk =   0.5000000

     Initial potential from superposition of free atoms

     starting charge  447.97367, renormalised to  448.00000

     negative rho (up, down):  6.777E-05 0.000E+00
     Starting wfcs are  288 randomized atomic wfcs

     Self-consistent Calculation

[...]

     Threshold (ethr) on eigenvalues was too large:
     Diagonalizing with lowered threshold

     Davidson diagonalization with overlap
     ethr =  1.70E-04,  avg # of iterations = 12.5

[...]

     negative rho (up, down):  1.936E-07 0.000E+00

[...]

     total energy              =   -5714.87767351 Ry
     estimated scf accuracy    <       0.00000274 Ry

     iteration # 11     ecut=    60.00 Ry     beta= 0.40
     Davidson diagonalization with overlap
     ethr =  6.12E-10,  avg # of iterations =  2.0

     End of self-consistent calculation

[...]

          k = 0.0000-0.5000 0.0000 ( 70890 PWs)   bands (ev):

[...]

          k =-0.5000 0.0000 0.0000 ( 70890 PWs)   bands (ev):

   -21.8805 -21.8775 -21.8773 -21.8764 -21.8374 -21.8344 -21.8341 -21.8330
   -21.8052 -21.8020 -21.8018 -21.8007 -21.7246 -21.7209 -21.7208 -21.7196
   -21.7127 -21.7095 -21.7093 -21.7081 -21.6454 -21.6440 -21.6432 -21.6425
   -21.6394 -21.6391 -21.6330 -21.6320 -21.6225 -21.6215 -21.6206 -21.6197
   -21.6149 -21.6144 -21.6001 -21.5982 -21.5943 -21.5901 -21.5891 -21.5840
   -21.5781 -21.5766 -21.5630 -21.5604 -21.5590 -21.5560 -21.5506 -21.5491
   -21.5438 -21.5422 -21.5418 -21.5411 -21.5338 -21.5323 -21.5298 -21.5279
   -21.5225 -21.5213 -21.5166 -21.5161 -21.5140 -21.5122 -21.5032 -21.5023
   -21.4983 -21.4970 -21.4940 -21.4931 -21.4836 -21.4827 -21.4802 -21.4788
   -21.4773 -21.4765 -21.4714 -21.4685 -21.4553 -21.4545 -21.4534 -21.4530
   -21.4465 -21.4457 -21.4421 -21.4408 -21.4393 -21.4380 -21.4367 -21.4347
   -21.4306 -21.4294 -21.4256 -21.4229 -21.4185 -21.4160 -21.4155 -21.4151
   -21.4128 -21.4116 -21.4097 -21.4086 -21.4078 -21.4071 -21.4036 -21.4026
   -21.3995 -21.3992 -21.3913 -21.3905 -21.3894 -21.3876 -21.3852 -21.3828
   -21.3820 -21.3818 -21.3790 -21.3766 -21.3706 -21.3681 -21.3645 -21.3638
   -21.3632 -21.3603 -21.3563 -21.3543 -21.3510 -21.3498 -21.3436 -21.3405
   -21.3398 -21.3376 -21.3348 -21.3325 -21.3311 -21.3304 -21.3257 -21.3252
   -21.3228 -21.3222 -21.3155 -21.3136 -21.2705 -21.2696 -21.2667 -21.2657
   -21.2642 -21.2635 -21.2629 -21.2627 -21.2394 -21.2345 -21.2329 -21.2325
   -21.2279 -21.2231 -21.2217 -21.2208 -21.2193 -21.2157 -21.2140 -21.2137
    -8.4913  -8.4892  -8.0333  -8.0282  -7.2463  -7.2424  -6.8160  -6.8122
    -6.6859  -6.6826  -6.1544  -6.1498  -6.1195  -6.1143  -5.8257  -5.8204
    -5.3210  -5.3125  -4.1650  -4.1560  -3.9376  -3.9356  -3.7085  -3.7009
    -2.8133  -2.8050  -2.7721  -2.7634  -2.5164  -2.5109  -1.2296  -1.2219
    -0.5581  -0.5511  -0.2026  -0.1995  -0.0891  -0.0875   0.0714   0.0786
     0.1972   0.2020   0.6820   0.6849   0.8402   0.8418   0.9164   0.9177
     1.0850   1.0884   1.2994   1.3018   1.5624   1.5703   1.8668   1.8770
     2.0175   2.0251   2.2893   2.2920   2.3610   2.3713   2.5446   2.5484
     3.4345   3.4366   3.4690   3.4731   4.1768   4.1856   4.2770   4.2814
     4.5813   4.5842   5.0309   5.0379   5.3847   5.3868   5.5047   5.5154
     5.5228   5.5319   5.7235   5.7306   5.9525   5.9617   6.1835   6.1946
     6.5155   6.5163   6.6949   6.6986   6.8177   6.8290   7.1446   7.1530
     7.2503   7.2550   7.3610   7.3632   7.3842   7.3937   7.6767   7.6777
     7.8597   7.8630   7.9233   7.9284   8.0523

     the Fermi energy is     2.9206 ev

!    total energy              =   -5714.87767406 Ry
     estimated scf accuracy    <       0.00000025 Ry
     smearing contrib. (-TS)   =      -0.00527751 Ry
     internal energy E=F+TS    =   -5714.87239655 Ry

     The total energy is F=E-TS. E is the sum of the following terms:
     one-electron contribution =  -16138.50264273 Ry
     hartree contribution      =    8271.82668193 Ry
     xc contribution           =   -1394.52233178 Ry
     ewald contribution        =    3546.32589603 Ry

     convergence has been achieved in  11 iterations

     Forces acting on atoms (cartesian axes, Ry/au):

     atom    1 type  1   force =    -0.00000437   -0.00017384    0.00026044
     atom    2 type  1   force =     0.00020898   -0.00033808    0.00013281
     atom    3 type  1   force =     0.00002637   -0.00012622   -0.00032572
     atom    4 type  1   force =    -0.00012310   -0.00013504    0.00009094
     atom    5 type  1   force =     0.00004105    0.00025853   -0.00016442
     atom    6 type  1   force =    -0.00009514    0.00028961    0.00006140
     atom    7 type  1   force =     0.00029217   -0.00016107    0.00018966
     atom    8 type  1   force =    -0.00016623   -0.00003692   -0.00070465
     atom    9 type  1   force =    -0.00044973   -0.00036271    0.00022397
     atom   10 type  1   force =    -0.00000183   -0.00041047    0.00047797
     atom   11 type  1   force =     0.00020419    0.00010539   -0.00014697
     atom   12 type  1   force =     0.00008569   -0.00015240    0.00065625
     atom   13 type  1   force =    -0.00005405    0.00003724   -0.00036885
     atom   14 type  1   force =    -0.00029718    0.00042399    0.00004427
     atom   15 type  1   force =    -0.00011902    0.00077170   -0.00001980
     atom   16 type  1   force =     0.00023251   -0.00028776    0.00024250
     atom   17 type  1   force =    -0.00008183   -0.00038730    0.00003544
     atom   18 type  1   force =    -0.00013093    0.00001682   -0.00017258
     atom   19 type  1   force =     0.00009772    0.00031526   -0.00022372
     atom   20 type  1   force =    -0.00009234   -0.00037542    0.00001450
     atom   21 type  1   force =     0.00006920    0.00049926   -0.00043867
     atom   22 type  1   force =     0.00019271    0.00051099    0.00032600
     atom   23 type  1   force =     0.00000052   -0.00009877   -0.00033904
     atom   24 type  1   force =    -0.00003536    0.00082477    0.00008771
     atom   25 type  1   force =     0.00029069    0.00005775    0.00001372
     atom   26 type  1   force =    -0.00008179   -0.00090456   -0.00027367
     atom   27 type  1   force =    -0.00027161   -0.00013238    0.00058618
     atom   28 type  1   force =     0.00003064   -0.00035254    0.00020890
     atom   29 type  1   force =     0.00027870    0.00005260   -0.00057589
     atom   30 type  1   force =     0.00023509   -0.00040945    0.00019800
     atom   31 type  1   force =    -0.00023842    0.00077622   -0.00009020
     atom   32 type  1   force =    -0.00004332   -0.00009520   -0.00000648

     Total force =     0.002993     Total SCF correction =     0.002245
     SCF correction compared to forces is large: reduce conv_thr to get better values

     BFGS Geometry Optimization
     Energy error            =      0.0E+00 Ry
     Gradient error          =      9.0E-04 Ry/Bohr

     bfgs converged in   1 scf cycles and   0 bfgs steps
     (criteria: energy <  1.0E-04 Ry, force <  1.0E-03 Ry/Bohr)

     End of BFGS Geometry Optimization

     Final energy             =   -5714.8776740624 Ry
Begin final coordinates

ATOMIC_POSITIONS (angstrom)
Ge            0.0442245798        0.6078418500        4.8107622158
Ge            1.9872059205        0.0134972824        6.4192382143
Ge            2.1406439802        2.0277697640        7.8965228041
Ge           -0.0025495256        1.9907074189        9.2403990257
Ge            0.0114384684        0.0441267661       10.8575188754
Ge            2.1531467178        0.0037280226       12.2000613012
Ge            1.9276879726        2.0106517867       13.6811710162
Ge           -0.0207318764        1.4353094388       15.2859783885
Ge            0.0433176677        3.0528794988        5.6564442983
Ge            2.1613901163        4.1078450475        6.4077085461
Ge            1.9280885415        6.1082956308        7.8955111133
Ge           -0.0101554201        6.1652815532        9.4334567789
Ge           -0.0043518257        4.0334568075       10.6586587836
Ge            1.9380545243        4.0888399046       12.1993095324
Ge            2.0964709717        6.1000714980       13.6788904607
Ge           -0.0357607396        7.1508812598       14.4362613397
Ge            4.1239931067       -1.0273016764        5.6596022453
Ge            6.2459558346        0.0303683285        6.3998518712
Ge            6.0186995194        2.0262750672        7.8949929079
Ge            4.0833947952        2.0856721844        9.4397593731
Ge            4.0908465042       -0.0489236366       10.6610014648
Ge            6.0318307046        0.0093887358       12.2075286664
Ge            6.1879960203        2.0233838559       13.6873484116
Ge            4.0502890675        3.0609867896       14.4355832559
Ge            4.1154335666        4.6853119651        4.8149212360
Ge            6.0661484704        4.0920877520        6.4131611382
Ge            6.2123846069        6.1080819505        7.8845297270
Ge            4.0715151115        6.0729044856        9.2360283641
Ge            4.0815496160        4.1287253994       10.8583035300
Ge            6.2207154958        4.0913538512       12.2040231246
Ge            6.0041758643        6.0882258323       13.6975008319
Ge            4.0441974207        5.5074629645       15.2823988378
End final coordinates

     Writing output data file ./out/ge.save/

     General routines

     Parallel routines

   This run was terminated on:   6: 7:57  29Apr2025

   JOB DONE.