     Program PWSCF v.6.8 starts on  7May2025 at 21:17:15

     R & G space division:  proc/nbgrp/npool/nimage =      56

     Reading input from minus_e.in

     Current dimensions of program PWSCF are:
     Max number of different atomic species (ntypx) = 10
     Max number of k-points (npk) =  40000
     Max angular momentum in pseudopotentials (lmaxx) =  4
     Found symmetry operation: I + ( -0.5000 -0.5000  0.0000)
     This is a supercell, fractional translations are disabled

     Using Slab Decomposition

     bravais-lattice index     =            0
     lattice parameter (alat)  =      10.8848  a.u.
     unit-cell volume          =    1289.6268 (a.u.)^3
     number of atoms/cell      =            8
     number of atomic types    =            1
     number of electrons       =       112.00
     number of Kohn-Sham states=           67
     kinetic-energy cutoff     =      80.0000  Ry
     charge density cutoff     =     320.0000  Ry
     scf convergence threshold =      1.0E-08
     mixing beta               =       0.4000
     number of iterations used =            8  plain     mixing
     Exchange-correlation= PBE
                           (   1   4   3   4   0   0   0)

     celldm(1)=  10.884822  celldm(2)=   0.000000  celldm(3)=   0.000000
     celldm(4)=   0.000000  celldm(5)=   0.000000  celldm(6)=   0.000000

     crystal axes: (cart. coord. in units of alat)
               a(1) = (   1.000000  -0.010000   0.000000 )
               a(2) = (   0.000000   1.000000   0.000000 )
               a(3) = (   0.000000   0.000000   1.000000 )

     reciprocal axes: (cart. coord. in units 2 pi/alat)
               b(1) = (  1.000000  0.000000  0.000000 )
               b(2) = (  0.010000  1.000000  0.000000 )
               b(3) = (  0.000000  0.000000  1.000000 )

     PseudoPot. # 1 for Ge read from file:
     ./Ge.upf
     MD5 check sum: 087fa14d6c89b52166990835c3b338da
     Pseudo is Norm-conserving + core correction, Zval = 14.0
     Generated using ONCVPSP code by D. R. Hamann
     Using radial grid of 1560 points,  6 beta functions with:
                l(1) =   0
                l(2) =   0
                l(3) =   1
                l(4) =   1
                l(5) =   2
                l(6) =   2

     atomic species   valence    mass     pseudopotential
        Ge            14.00    72.63000     Ge( 1.00)

     No symmetry found

   Cartesian axes

     site n.     atom                  positions (alat units)
         1           Ge  tau(   1) = (   0.0000000   0.0000000   0.0000000  )
         2           Ge  tau(   2) = (   0.5000000   0.4950000   0.0000000  )
         3           Ge  tau(   3) = (   0.5000000  -0.0050000   0.5000000  )
         4           Ge  tau(   4) = (   0.0000000   0.5000000   0.5000000  )
         5           Ge  tau(   5) = (   0.2500000   0.2475000   0.2500000  )
         6           Ge  tau(   6) = (   0.7500000   0.7425000   0.2500000  )
         7           Ge  tau(   7) = (   0.7500000   0.2425000   0.7500000  )
         8           Ge  tau(   8) = (   0.2500000   0.7475000   0.7500000  )

     number of k points=    36  Gaussian smearing, width (Ry)=  0.0100
                       cart. coord. in units 2pi/alat
        k(    1) = (   0.0000000   0.0000000   0.0000000), wk =   0.0312500
        k(    2) = (   0.0000000   0.0000000   0.2500000), wk =   0.0625000
        k(    3) = (   0.0000000   0.0000000  -0.5000000), wk =   0.0312500
        k(    4) = (   0.0025000   0.2500000   0.0000000), wk =   0.0625000
        k(    5) = (   0.0025000   0.2500000   0.2500000), wk =   0.0625000
        k(    6) = (   0.0025000   0.2500000  -0.5000000), wk =   0.0625000
        k(    7) = (   0.0025000   0.2500000  -0.2500000), wk =   0.0625000
        k(    8) = (  -0.0050000  -0.5000000   0.0000000), wk =   0.0312500
        k(    9) = (  -0.0050000  -0.5000000   0.2500000), wk =   0.0625000
        k(   10) = (  -0.0050000  -0.5000000  -0.5000000), wk =   0.0312500
        k(   11) = (   0.2500000   0.0000000   0.0000000), wk =   0.0625000
        k(   12) = (   0.2500000   0.0000000   0.2500000), wk =   0.0625000
        k(   13) = (   0.2500000   0.0000000  -0.5000000), wk =   0.0625000
        k(   14) = (   0.2500000   0.0000000  -0.2500000), wk =   0.0625000
        k(   15) = (   0.2525000   0.2500000   0.0000000), wk =   0.0625000
        k(   16) = (   0.2525000   0.2500000   0.2500000), wk =   0.0625000
        k(   17) = (   0.2525000   0.2500000  -0.5000000), wk =   0.0625000
        k(   18) = (   0.2525000   0.2500000  -0.2500000), wk =   0.0625000
        k(   19) = (   0.2450000  -0.5000000   0.0000000), wk =   0.0625000
        k(   20) = (   0.2450000  -0.5000000   0.2500000), wk =   0.0625000
        k(   21) = (   0.2450000  -0.5000000  -0.5000000), wk =   0.0625000
        k(   22) = (   0.2450000  -0.5000000  -0.2500000), wk =   0.0625000
        k(   23) = (   0.2475000  -0.2500000   0.0000000), wk =   0.0625000
        k(   24) = (   0.2475000  -0.2500000   0.2500000), wk =   0.0625000
        k(   25) = (   0.2475000  -0.2500000  -0.5000000), wk =   0.0625000
        k(   26) = (   0.2475000  -0.2500000  -0.2500000), wk =   0.0625000
        k(   27) = (  -0.5000000   0.0000000   0.0000000), wk =   0.0312500
        k(   28) = (  -0.5000000   0.0000000   0.2500000), wk =   0.0625000
        k(   29) = (  -0.5000000   0.0000000  -0.5000000), wk =   0.0312500
        k(   30) = (  -0.4975000   0.2500000   0.0000000), wk =   0.0625000
        k(   31) = (  -0.4975000   0.2500000   0.2500000), wk =   0.0625000
        k(   32) = (  -0.4975000   0.2500000  -0.5000000), wk =   0.0625000
        k(   33) = (  -0.4975000   0.2500000  -0.2500000), wk =   0.0625000
        k(   34) = (  -0.5050000  -0.5000000   0.0000000), wk =   0.0312500
        k(   35) = (  -0.5050000  -0.5000000   0.2500000), wk =   0.0625000
        k(   36) = (  -0.5050000  -0.5000000  -0.5000000), wk =   0.0312500

     Initial potential from superposition of free atoms

     starting charge  111.99342, renormalised to  112.00000
     Starting wfcs are   72 randomized atomic wfcs

     Self-consistent Calculation

     iteration #  1     ecut=    80.00 Ry     beta= 0.40
     Davidson diagonalization with overlap
     ethr =  1.00E-02,  avg # of iterations =  3.6

     Threshold (ethr) on eigenvalues was too large:
     Diagonalizing with lowered threshold

     Davidson diagonalization with overlap
     ethr =  1.01E-04,  avg # of iterations =  5.5

     total energy              =   -1429.14163713 Ry
     estimated scf accuracy    <       0.12475484 Ry

[...]

     iteration #  4     ecut=    80.00 Ry     beta= 0.40
     Davidson diagonalization with overlap
     c_bands:  1 eigenvalues not converged
     c_bands:  1 eigenvalues not converged
     c_bands:  1 eigenvalues not converged
     c_bands:  1 eigenvalues not converged
     c_bands:  1 eigenvalues not converged
     ethr =  3.96E-07,  avg # of iterations =  9.7

[...]

     total energy              =   -1429.13904045 Ry
     estimated scf accuracy    <       0.00000005 Ry

     iteration #  9     ecut=    80.00 Ry     beta= 0.40
     Davidson diagonalization with overlap
     ethr =  4.10E-11,  avg # of iterations =  2.0

     End of self-consistent calculation

          k = 0.0000 0.0000 0.0000 ( 15561 PWs)   bands (ev):

   -16.0097 -16.0062 -16.0062 -16.0062 -16.0062 -16.0027 -15.9812 -15.9763
   -15.9715 -15.9460 -15.9459 -15.9310 -15.9307 -15.9307 -15.9307 -15.9307
   -15.9306 -15.8502 -15.8479 -15.8479 -15.8479 -15.8479 -15.8455 -15.7989
   -15.7975 -15.7975 -15.7975 -15.7975 -15.7959 -15.7662 -15.7617 -15.7572
   -15.7543 -15.7542 -15.7184 -15.7154 -15.7154 -15.7154 -15.7154 -15.7124
    -3.5660   0.0658   0.1169   0.1169   0.1171   0.1171   0.1677   5.8741
     5.9192   5.9192   5.9196   5.9196   5.9650   8.3570   8.8037   8.8078
     8.8140   9.5706   9.6231   9.6231   9.6234   9.6234   9.6770  11.2652
    11.3403  11.4103  15.1149

[...]

          k =-0.0050-0.5000 0.0000 ( 15600 PWs)   bands (ev):

[...]

          k = 0.2475-0.2500-0.2500 ( 15573 PWs)   bands (ev):

[...]

          k =-0.5050-0.5000-0.5000 ( 15440 PWs)   bands (ev):

   -16.0014 -16.0014 -15.9990 -15.9990 -15.9966 -15.9966 -15.9943 -15.9943
   -15.9629 -15.9629 -15.9584 -15.9584 -15.9117 -15.9117 -15.9098 -15.9098
   -15.9094 -15.9094 -15.9075 -15.9075 -15.7972 -15.7972 -15.7957 -15.7957
   -15.7945 -15.7945 -15.7930 -15.7930 -15.7813 -15.7813 -15.7776 -15.7776
   -15.7304 -15.7303 -15.7291 -15.7291 -15.7260 -15.7260 -15.7247 -15.7247
    -1.6382  -1.6382  -1.5736  -1.5736   1.4279   1.4279   1.4643   1.4643
     7.4588   7.4588   7.4682   7.4682   7.5040   7.5040   7.5122   7.5122
     8.7961   8.7961   8.8690   8.8690  12.4660  12.4660  12.4953  12.4953
    12.5453  12.5453  12.5750

     the Fermi energy is     8.7651 ev

!    total energy              =   -1429.13904045 Ry
     estimated scf accuracy    <          1.3E-09 Ry
     smearing contrib. (-TS)   =      -0.00050901 Ry
     internal energy E=F+TS    =   -1429.13853145 Ry

     The total energy is F=E-TS. E is the sum of the following terms:
     one-electron contribution =    -755.56762214 Ry
     hartree contribution      =     451.46659336 Ry
     xc contribution           =    -349.06334631 Ry
     ewald contribution        =    -775.97415635 Ry

     convergence has been achieved in   9 iterations

     Forces acting on atoms (cartesian axes, Ry/au):

     atom    1 type  1   force =    -0.00000033    0.00000046   -0.00313933
     atom    2 type  1   force =     0.00000019   -0.00000062   -0.00313951
     atom    3 type  1   force =     0.00000035    0.00000035   -0.00314027
     atom    4 type  1   force =     0.00000024   -0.00000036   -0.00314053
     atom    5 type  1   force =    -0.00000004    0.00000027    0.00313937
     atom    6 type  1   force =    -0.00000014   -0.00000024    0.00313915
     atom    7 type  1   force =    -0.00000010    0.00000005    0.00314049
     atom    8 type  1   force =    -0.00000016    0.00000009    0.00314063

     Total force =     0.008881     Total SCF correction =     0.000060

     Computing stress (Cartesian axis) and pressure

          total   stress  (Ry/bohr**3)                   (kbar)     P=        2.50
   0.00001748   0.00004614  -0.00000000            2.57        6.79       -0.00
   0.00004614   0.00001677  -0.00000000            6.79        2.47       -0.00
  -0.00000000  -0.00000000   0.00001682           -0.00       -0.00        2.47

     Writing output data file ./Ge_out/Ge_scf.save/

     General routines

     Parallel routines

   This run was terminated on:  21:18: 3   7May2025

   JOB DONE.