     Program PWSCF v.7.2 starts on 27Apr2025 at  8:26:50

     Waiting for input...
     Reading input from standard input
Warning: card &CELL ignored
Warning: card / ignored

     Current dimensions of program PWSCF are:
     Max number of different atomic species (ntypx) = 10
     Max number of k-points (npk) =  40000
     Max angular momentum in pseudopotentials (lmaxx) =  4

     K-points division:     npool     =       4
     R & G space division:  proc/nbgrp/npool/nimage =       4
     Subspace diagonalization in iterative solution of the eigenvalue problem:
     a serial algorithm will be used

     Using Slab Decomposition

     bravais-lattice index     =            7
     lattice parameter (alat)  =       9.0707  a.u.
     unit-cell volume          =     200.3860 (a.u.)^3
     number of atoms/cell      =            2
     number of atomic types    =            1
     number of electrons       =        28.00
     number of Kohn-Sham states=           18
     kinetic-energy cutoff     =      80.0000  Ry
     charge density cutoff     =     320.0000  Ry
     scf convergence threshold =      1.0E-06
     mixing beta               =       0.4000
     number of iterations used =            8  plain     mixing
     Exchange-correlation= PBE
                           (   1   4   3   4   0   0   0)

     celldm(1)=   9.070704  celldm(2)=   0.000000  celldm(3)=   0.537000
     celldm(4)=   0.000000  celldm(5)=   0.000000  celldm(6)=   0.000000

     crystal axes: (cart. coord. in units of alat)
               a(1) = (   0.500000  -0.500000   0.268500 )
               a(2) = (   0.500000   0.500000   0.268500 )
               a(3) = (  -0.500000  -0.500000   0.268500 )

     reciprocal axes: (cart. coord. in units 2 pi/alat)
               b(1) = (  1.000000 -1.000000  0.000000 )
               b(2) = (  0.000000  1.000000  1.862197 )
               b(3) = ( -1.000000  0.000000  1.862197 )

     PseudoPot. # 1 for Ge read from file:
     ./Ge.upf
     MD5 check sum: 087fa14d6c89b52166990835c3b338da
     Pseudo is Norm-conserving + core correction, Zval = 14.0
     Generated using ONCVPSP code by D. R. Hamann
     Using radial grid of 1560 points,  6 beta functions with:
                l(1) =   0
                l(2) =   0
                l(3) =   1
                l(4) =   1
                l(5) =   2
                l(6) =   2

     atomic species   valence    mass     pseudopotential
        Ge            14.00    72.63000     Ge( 1.00)

      4 Sym. Ops. (no inversion) found

   Cartesian axes

     site n.     atom                  positions (alat units)
         1           Ge  tau(   1) = (   0.0000000   0.0000000   0.0000000  )
         2           Ge  tau(   2) = (   0.0000000   0.5000000   0.1375000  )

     number of k points=   494  Gaussian smearing, width (Ry)=  0.0100

     Number of k-points >= 100: set verbosity='high' to print them.

     Initial potential from superposition of free atoms

     starting charge      27.9984, renormalised to      28.0000
     Starting wfcs are   18 randomized atomic wfcs

     Self-consistent Calculation

     iteration #  1     ecut=    80.00 Ry     beta= 0.40
     Davidson diagonalization with overlap
     ethr =  1.00E-02,  avg # of iterations =  3.5

     Threshold (ethr) on eigenvalues was too large:
     Diagonalizing with lowered threshold

     Davidson diagonalization with overlap
     ethr =  3.88E-05,  avg # of iterations =  5.2

     total energy              =    -357.19819487 Ry
     estimated scf accuracy    <       0.01134229 Ry

[...]

     total energy              =    -357.19857911 Ry
     estimated scf accuracy    <       0.00002102 Ry

     iteration #  5     ecut=    80.00 Ry     beta= 0.40
     Davidson diagonalization with overlap
     ethr =  7.51E-08,  avg # of iterations =  2.0

     End of self-consistent calculation

     Number of k-points >= 100: set verbosity='high' to print the bands.

     the Fermi energy is    16.5343 ev

!    total energy              =    -357.19858227 Ry
     estimated scf accuracy    <       0.00000020 Ry
     smearing contrib. (-TS)   =      -0.00054318 Ry
     internal energy E=F+TS    =    -357.19803909 Ry

     The total energy is F=E-TS. E is the sum of the following terms:
     one-electron contribution =    -109.06259510 Ry
     hartree contribution      =      80.68823655 Ry
     xc contribution           =     -87.59748327 Ry
     ewald contribution        =    -241.22619727 Ry

     convergence has been achieved in   5 iterations

     Forces acting on atoms (cartesian axes, Ry/au):

     atom    1 type  1   force =     0.00000000    0.00000000    0.00048710
     atom    2 type  1   force =     0.00000000    0.00000000   -0.00048710
     The non-local contrib.  to forces
     atom    1 type  1   force =    -0.00000000    0.00000000   -0.00004154
     atom    2 type  1   force =    -0.00000000    0.00000000    0.00004734
     The ionic contribution  to forces
     atom    1 type  1   force =    -0.00000000   -0.00000000    0.00075875
     atom    2 type  1   force =     0.00000000    0.00000000   -0.00075875
     The local contribution  to forces
     atom    1 type  1   force =    -0.00000000    0.00000000   -0.00015646
     atom    2 type  1   force =    -0.00000000    0.00000000    0.00016472
     The core correction contribution to forces
     atom    1 type  1   force =    -0.00000000    0.00000000   -0.00006104
     atom    2 type  1   force =    -0.00000000   -0.00000000    0.00006145
     The Hubbard contrib.    to forces
     atom    1 type  1   force =     0.00000000    0.00000000    0.00000000
     atom    2 type  1   force =     0.00000000    0.00000000    0.00000000
     The SCF correction term to forces
     atom    1 type  1   force =     0.00000000   -0.00000000   -0.00001088
     atom    2 type  1   force =     0.00000000    0.00000000   -0.00000013

     Total force =     0.000689     Total SCF correction =     0.000011

     Computing stress (Cartesian axis) and pressure

          total   stress  (Ry/bohr**3)                   (kbar)     P=      329.37
   0.00221051   0.00000000   0.00000000          325.18        0.00        0.00
   0.00000000   0.00215935  -0.00000000            0.00      317.65       -0.00
   0.00000000  -0.00000000   0.00234711            0.00       -0.00      345.27

     Writing all to output data dir ./Ge_out/Ge_scf.save/

     General routines

     Parallel routines

   This run was terminated on:   8:28:17  27Apr2025

   JOB DONE.