     Program PWSCF v.6.8 starts on 28Apr2025 at 10:44:46

     R & G space division:  proc/nbgrp/npool/nimage =      56

     Reading input from surface_relax.in
Warning: card &CELL ignored
Warning: card / ignored
Warning: card &FCP ignored
Warning: card / ignored
Warning: card &RISM ignored
Warning: card / ignored

     Current dimensions of program PWSCF are:
     Max number of different atomic species (ntypx) = 10
     Max number of k-points (npk) =  40000
     Max angular momentum in pseudopotentials (lmaxx) =  4

     gamma-point specific algorithms are used
     Found symmetry operation: I + (  0.0000  0.2500  0.0000)
     This is a supercell, fractional translations are disabled
     Message from routine setup:
     using ibrav=0 with symmetry is DISCOURAGED, use correct ibrav instead

     Using Slab Decomposition

     bravais-lattice index     =            0
     lattice parameter (alat)  =      30.3318  a.u.
     unit-cell volume          =   33555.7491 (a.u.)^3
     number of atoms/cell      =          128
     number of atomic types    =            1
     number of electrons       =      1792.00
     number of Kohn-Sham states=         1075
     kinetic-energy cutoff     =      60.0000  Ry
     charge density cutoff     =     240.0000  Ry
     scf convergence threshold =      1.0E-06
     mixing beta               =       0.4000
     number of iterations used =            8  plain     mixing
     energy convergence thresh.=      1.0E-04
     force convergence thresh. =      1.0E-03
     Exchange-correlation= PBE
                           (   1   4   3   4   0   0   0)
     nstep                     =           50

     celldm(1)=  30.331827  celldm(2)=   0.000000  celldm(3)=   0.000000
     celldm(4)=   0.000000  celldm(5)=   0.000000  celldm(6)=   0.000000

     crystal axes: (cart. coord. in units of alat)
               a(1) = (   1.000000   0.000000   0.000000 )
               a(2) = (   0.500000   0.866025   0.000000 )
               a(3) = (   0.000000   0.000000   1.388483 )

     reciprocal axes: (cart. coord. in units 2 pi/alat)
               b(1) = (  1.000000 -0.577351  0.000000 )
               b(2) = (  0.000000  1.154701  0.000000 )
               b(3) = (  0.000000  0.000000  0.720210 )

     PseudoPot. # 1 for Ge read from file:
     ./Ge.upf
     MD5 check sum: 087fa14d6c89b52166990835c3b338da
     Pseudo is Norm-conserving + core correction, Zval = 14.0
     Generated using ONCVPSP code by D. R. Hamann
     Using radial grid of 1560 points,  6 beta functions with:
                l(1) =   0
                l(2) =   0
                l(3) =   1
                l(4) =   1
                l(5) =   2
                l(6) =   2

     atomic species   valence    mass     pseudopotential
        Ge            14.00    72.63000     Ge( 1.00)

      2 Sym. Ops. (no inversion) found

   Cartesian axes

     site n.     atom                  positions (alat units)
         1           Ge  tau(   1) = (   0.0625000   0.0360844   0.4646019  )
         2           Ge  tau(   2) = (   0.0625000   0.0360844   0.3115088  )
         3           Ge  tau(   3) = (   0.1875001   0.1082532   0.6687261  )
         4           Ge  tau(   4) = (   0.1875001   0.1082532   0.5156329  )
         5           Ge  tau(   5) = (   0.3125001   0.1804220   0.8728502  )
         6           Ge  tau(   6) = (   0.3125001   0.1804220   0.7197571  )
         7           Ge  tau(   7) = (   0.0625001   0.0360844   1.0769744  )
         8           Ge  tau(   8) = (   0.0625001   0.0360844   0.9238812  )
         9           Ge  tau(   9) = (   0.1875001   0.2525907   0.4646019  )
        10           Ge  tau(  10) = (   0.1875001   0.2525907   0.3115088  )
        11           Ge  tau(  11) = (   0.3125002   0.3247595   0.6687261  )
        12           Ge  tau(  12) = (   0.3125001   0.3247595   0.5156329  )
        13           Ge  tau(  13) = (   0.4375002   0.3969283   0.8728502  )
        14           Ge  tau(  14) = (   0.4375002   0.3969283   0.7197571  )
        15           Ge  tau(  15) = (   0.1875002   0.2525908   1.0769744  )
        16           Ge  tau(  16) = (   0.1875002   0.2525908   0.9238812  )
        17           Ge  tau(  17) = (   0.3125002   0.4690971   0.4646019  )
        18           Ge  tau(  18) = (   0.3125001   0.4690971   0.3115088  )
        19           Ge  tau(  19) = (   0.4375002   0.5412659   0.6687261  )
        20           Ge  tau(  20) = (   0.4375002   0.5412659   0.5156329  )
        21           Ge  tau(  21) = (   0.5625003   0.6134347   0.8728502  )
        22           Ge  tau(  22) = (   0.5625002   0.6134347   0.7197571  )
        23           Ge  tau(  23) = (   0.3125003   0.4690971   1.0769744  )
        24           Ge  tau(  24) = (   0.3125002   0.4690971   0.9238812  )
        25           Ge  tau(  25) = (   0.4375002   0.6856034   0.4646019  )
        26           Ge  tau(  26) = (   0.4375002   0.6856034   0.3115088  )
        27           Ge  tau(  27) = (   0.5625003   0.7577722   0.6687261  )
        28           Ge  tau(  28) = (   0.5625002   0.7577722   0.5156329  )
        29           Ge  tau(  29) = (   0.6875003   0.8299410   0.8728502  )
        30           Ge  tau(  30) = (   0.6875003   0.8299410   0.7197571  )
        31           Ge  tau(  31) = (   0.4375003   0.6856035   1.0769744  )
        32           Ge  tau(  32) = (   0.4375003   0.6856035   0.9238812  )
        33           Ge  tau(  33) = (   0.3125000   0.0360844   0.4646019  )
        34           Ge  tau(  34) = (   0.3125000   0.0360844   0.3115088  )
        35           Ge  tau(  35) = (   0.4375001   0.1082532   0.6687261  )
        36           Ge  tau(  36) = (   0.4375001   0.1082532   0.5156329  )
        37           Ge  tau(  37) = (   0.5625001   0.1804220   0.8728502  )
        38           Ge  tau(  38) = (   0.5625001   0.1804220   0.7197571  )
        39           Ge  tau(  39) = (   0.3125001   0.0360844   1.0769744  )
        40           Ge  tau(  40) = (   0.3125001   0.0360844   0.9238812  )
        41           Ge  tau(  41) = (   0.4375001   0.2525907   0.4646019  )
        42           Ge  tau(  42) = (   0.4375001   0.2525907   0.3115088  )
        43           Ge  tau(  43) = (   0.5625002   0.3247595   0.6687261  )
        44           Ge  tau(  44) = (   0.5625001   0.3247595   0.5156329  )
        45           Ge  tau(  45) = (   0.6875002   0.3969283   0.8728502  )
        46           Ge  tau(  46) = (   0.6875002   0.3969283   0.7197571  )
        47           Ge  tau(  47) = (   0.4375002   0.2525908   1.0769744  )
        48           Ge  tau(  48) = (   0.4375002   0.2525908   0.9238812  )
        49           Ge  tau(  49) = (   0.5625002   0.4690971   0.4646019  )
        50           Ge  tau(  50) = (   0.5625001   0.4690971   0.3115088  )
        51           Ge  tau(  51) = (   0.6875002   0.5412659   0.6687261  )
        52           Ge  tau(  52) = (   0.6875002   0.5412659   0.5156329  )
        53           Ge  tau(  53) = (   0.8125003   0.6134347   0.8728502  )
        54           Ge  tau(  54) = (   0.8125002   0.6134347   0.7197571  )
        55           Ge  tau(  55) = (   0.5625003   0.4690971   1.0769744  )
        56           Ge  tau(  56) = (   0.5625002   0.4690971   0.9238812  )
        57           Ge  tau(  57) = (   0.6875002   0.6856034   0.4646019  )
        58           Ge  tau(  58) = (   0.6875002   0.6856034   0.3115088  )
        59           Ge  tau(  59) = (   0.8125003   0.7577722   0.6687261  )
        60           Ge  tau(  60) = (   0.8125002   0.7577722   0.5156329  )
[...]
       114           Ge  tau( 114) = (   1.0625001   0.4690971   0.3115088  )
       115           Ge  tau( 115) = (   1.1875002   0.5412659   0.6687261  )
       116           Ge  tau( 116) = (   1.1875002   0.5412659   0.5156329  )
       117           Ge  tau( 117) = (   1.3125003   0.6134347   0.8728502  )
       118           Ge  tau( 118) = (   1.3125002   0.6134347   0.7197571  )
       119           Ge  tau( 119) = (   1.0625003   0.4690971   1.0769744  )
       120           Ge  tau( 120) = (   1.0625002   0.4690971   0.9238812  )
       121           Ge  tau( 121) = (   1.1875002   0.6856034   0.4646019  )
       122           Ge  tau( 122) = (   1.1875002   0.6856034   0.3115088  )
       123           Ge  tau( 123) = (   1.3125003   0.7577722   0.6687261  )
       124           Ge  tau( 124) = (   1.3125002   0.7577722   0.5156329  )
       125           Ge  tau( 125) = (   1.4375003   0.8299410   0.8728502  )
       126           Ge  tau( 126) = (   1.4375003   0.8299410   0.7197571  )
       127           Ge  tau( 127) = (   1.1875003   0.6856035   1.0769744  )
       128           Ge  tau( 128) = (   1.1875003   0.6856035   0.9238812  )

     number of k points=     1  Gaussian smearing, width (Ry)=  0.0100
                       cart. coord. in units 2pi/alat
        k(    1) = (   0.0000000   0.0000000   0.0000000), wk =   2.0000000

     Initial potential from superposition of free atoms

     starting charge 1791.89467, renormalised to 1792.00000

     negative rho (up, down):  7.957E-05 0.000E+00
     Starting wfcs are 1152 randomized atomic wfcs

     Self-consistent Calculation

     iteration #  1     ecut=    60.00 Ry     beta= 0.40
     Davidson diagonalization with overlap
     ethr =  1.00E-02,  avg # of iterations =  3.0

     Threshold (ethr) on eigenvalues was too large:
     Diagonalizing with lowered threshold

     Davidson diagonalization with overlap
     ethr =  3.80E-04,  avg # of iterations =  6.0

     negative rho (up, down):  2.253E-05 0.000E+00

     total energy              =  -22855.00842794 Ry
     estimated scf accuracy    <       7.40450877 Ry

[...]

     iteration #  5     ecut=    60.00 Ry     beta= 0.40
     Davidson diagonalization with overlap
     c_bands:  4 eigenvalues not converged
     ethr =  1.51E-05,  avg # of iterations = 20.0

[...]

     End of self-consistent calculation

          k = 0.0000 0.0000 0.0000 (131692 PWs)   bands (ev):

   -21.4116 -21.4116 -21.4116 -21.4111 -21.4111 -21.4110 -21.4110 -21.4110
   -21.4110 -21.4110 -21.4109 -21.4107 -21.4106 -21.4106 -21.4106 -21.4106
   -21.4106 -21.4106 -21.4105 -21.4105 -21.4097 -21.4097 -21.4088 -21.4088
   -21.4088 -21.4088 -21.4088 -21.4088 -21.4085 -21.4085 -21.4085 -21.4085
   -21.4085 -21.4085 -21.4078 -21.4078 -21.4078 -21.4078 -21.4078 -21.4078
   -21.4069 -21.4069 -21.4069 -21.4063 -21.4063 -21.4063 -21.4062 -21.4062
   -21.4062 -21.4062 -21.4062 -21.4062 -21.4052 -21.4052 -21.4052 -21.4052
   -21.4052 -21.4052 -21.4045 -21.4045 -21.4044 -21.4044 -21.4044 -21.4044
   -21.3009 -21.3009 -21.3008 -21.3008 -21.3008 -21.3008 -21.2892 -21.2892
   -21.2892 -21.2880 -21.2880 -21.2880 -21.2880 -21.2880 -21.2880 -21.2858
   -21.2858 -21.2858 -21.2858 -21.2857 -21.2857 -21.2849 -21.2849 -21.2849
   -21.2839 -21.2839 -21.2838 -21.2838 -21.2838 -21.2838 -21.2836 -21.2836
   -21.2836 -21.2834 -21.2834 -21.2834 -21.2834 -21.2834 -21.2833 -21.2819
   -21.2819 -21.2812 -21.2812 -21.2812 -21.2812 -21.2812 -21.2812 -21.2802
   -21.2802 -21.2802 -21.2802 -21.2802 -21.2802 -21.2800 -21.2800 -21.2800
[...]
   -21.3412 -21.3412 -21.3412 -21.3412 -21.3401 -21.3401 -21.3401 -21.3399
   -21.3399 -21.3399 -21.3399 -21.3398 -21.3398 -21.3397 -21.3397 -21.3392
   -21.3392 -21.3392 -21.3392 -21.3392 -21.3392 -21.3386 -21.3386 -21.3386
   -21.3265 -21.3254 -21.3248 -21.3248 -21.3248 -21.3248 -21.3247 -21.3247
   -21.3243 -21.3243 -21.3243 -21.3239 -21.3239 -21.3239 -21.3239 -21.3239
   -21.3239 -21.3238 -21.3238 -21.3238 -21.3234 -21.3234 -21.3234 -21.3233
   -21.3233 -21.3233 -21.3224 -21.3224 -21.3224 -21.3224 -21.3223 -21.3223
   -21.1612 -21.1612 -21.1612 -21.1612 -21.1612 -21.1612 -21.1526 -21.1526
   -21.1526 -21.1502 -21.1502 -21.1502 -21.1502 -21.1502 -21.1502 -21.1497
   -21.1497 -21.1497 -21.1497 -21.1497 -21.1497 -21.1449 -21.1449 -21.1418
   -21.1418 -21.1418 -21.1418 -21.1418 -21.1418 -21.1388 -21.1388 -21.1388
   -21.1310 -21.1310 -21.1310 -21.1284 -21.1284 -21.1284 -21.1284 -21.1284
   -21.1284 -21.1147 -21.1147 -21.1147 -21.1147 -21.1147 -21.1146 -21.1012
   -21.1002 -21.0845 -21.0845 -21.0845 -21.0845 -21.0845 -21.0845 -21.0819
   -21.0819 -21.0738 -21.0738 -21.0738 -21.0618 -21.0618 -21.0617 -21.0617
   -21.0617 -21.0617 -21.0530 -21.0530 -21.0530 -21.0530 -21.0530 -21.0530
   -21.0522 -21.0522 -21.0522 -21.0522 -21.0522 -21.0522 -21.0463 -21.0463
   -21.0463 -21.0410 -21.0410 -21.0410 -21.0410 -21.0410 -21.0410 -21.0386
   -21.0386 -21.0386 -21.0386 -21.0386 -21.0386 -21.0324 -21.0324 -21.0324
   -21.0308 -21.0308 -21.0308 -21.0308 -21.0308 -21.0308 -21.0288 -21.0288
   -21.0287 -21.0287 -21.0287 -21.0287 -21.0244 -21.0244 -21.0244 -21.0242
   -21.0242 -21.0199 -21.0199 -21.0199 -21.0199 -21.0199 -21.0199 -21.0188
   -21.0188 -21.0188 -21.0188 -21.0188 -21.0188 -21.0187 -21.0187 -21.0173
   -21.0173 -21.0173 -21.0148 -21.0148 -21.0148 -21.0148 -21.0148 -21.0148
   -21.0062 -21.0062 -21.0062 -21.0062 -21.0062 -21.0062 -21.0031 -21.0031
   -21.0031 -20.9995 -20.9995 -20.9995 -20.9995 -20.9995 -20.9995 -20.9973
   -20.9973 -20.9973 -20.9973 -20.9973 -20.9973 -20.9843 -20.9842 -20.9842
   -20.9806 -20.9806 -20.9806 -20.9806 -20.9806 -20.9806 -20.9784 -20.9784
   -20.9784 -20.9751 -20.9751 -20.9751 -20.9719 -20.9719 -20.9719 -20.9719
   -20.9719 -20.9719 -20.9709 -20.9709 -20.9705 -20.9705 -20.9688 -20.9688
   -20.9688 -20.9688 -20.9688 -20.9688 -20.9633 -20.9633 -20.9633 -20.9633
   -20.9633 -20.9633 -20.9560 -20.9560 -20.9560 -20.9560 -20.9560 -20.9560
   -20.9553 -20.9553 -20.9553 -20.9513 -20.9513 -20.9513 -20.9513 -20.9513
   -20.9513 -20.9506 -20.9506 -20.9506 -20.9504 -20.9503 -20.9503 -20.9503
   -20.9503 -20.9503 -20.9450 -20.9450 -20.9450 -20.9450 -20.9450 -20.9450
   -20.9409 -20.9409 -20.9409 -20.9397 -20.9397 -20.9397 -20.9397 -20.9397
   -20.9397 -20.9377 -20.9377 -20.9377 -20.9377 -20.9377 -20.9377 -20.9370
   -20.9370 -20.9370 -20.9370 -20.9370 -20.9370 -20.9302 -20.9302 -20.9302
   -20.9297 -20.9297 -20.9297 -20.9297 -20.9297 -20.9297 -20.9275 -20.9275
   -20.9275 -20.9181 -20.9181 -20.9180 -20.9180 -20.9180 -20.9180 -20.9124
   -20.9124 -20.9124 -20.9124 -20.9124 -20.9124 -20.9033 -20.9033 -20.8917
   -20.8903 -20.8786 -20.8786 -20.8786 -20.8785 -20.8785 -20.8785 -20.8785
   -20.8785 -20.8784 -20.8774 -20.8774 -20.8774 -20.8774 -20.8774 -20.8774
   -20.8691 -20.8691 -20.8691 -20.8670 -20.8670 -20.8660 -20.8660 -20.8660
   -20.8660 -20.8660 -20.8660 -20.8560 -20.8560 -20.8560 -20.8560 -20.8560
   -20.8560 -20.8552 -20.8552 -20.8552 -20.8552 -20.8552 -20.8552 -20.8476
   -20.8476 -20.8476 -20.8389 -20.8389 -20.8389 -20.8389 -20.8389 -20.8389
[...]
     5.5446   5.6168   5.6168   5.6171   5.6171   5.6174   5.6174   5.7598
     5.7598   5.7599   5.7599   5.7599   5.7599   5.8627   5.8627   6.0325
     6.0325   6.0540   6.0540   6.0540   6.0540   6.0541   6.0541   6.1018
     6.1018   6.1019   6.1019   6.1019   6.1019   6.2452   6.4369   6.4370
     6.4371   6.4371   6.4372   6.4372   6.4932   6.4932   6.4932   6.4932
     6.4932   6.4932   6.8463   7.0493   7.0494   7.0495   7.0495   7.0496
     7.0497   7.1166   7.1166   7.2367   7.2367   7.2367   7.3085   7.3085
     7.3085   7.3324   7.3324   7.3324   7.3325   7.3325   7.3325   7.4840
     7.4841   7.4841   7.4841   7.4842   7.4842   7.7386   7.7386   7.7740
     7.7740   7.7741   7.7809   7.7809   7.9591   7.9591   7.9591   7.9591
     7.9591   7.9591   8.0167   8.0167   8.0167   8.0167   8.0167   8.0168
     8.2348   8.2348   8.2348   8.2348   8.2348   8.2348   8.2792   8.2792
     8.2792   8.3537   8.3537   8.3537   8.3537   8.3537   8.3537   8.3693
     8.3720   8.3923   8.3923   8.3923   8.3923   8.3923   8.3923   8.8188
     8.8188   8.8325   8.8334

     the Fermi energy is     3.3847 ev

!    total energy              =  -22857.87903895 Ry
     estimated scf accuracy    <          1.7E-09 Ry
     smearing contrib. (-TS)   =      -0.00888712 Ry
     internal energy E=F+TS    =  -22857.87015183 Ry

     The total energy is F=E-TS. E is the sum of the following terms:
     one-electron contribution =  -63247.66931675 Ry
     hartree contribution      =   32464.54061210 Ry
     xc contribution           =   -5574.52975176 Ry
     ewald contribution        =   13499.78830457 Ry

     convergence has been achieved in  10 iterations

     Forces acting on atoms (cartesian axes, Ry/au):

     atom    1 type  1   force =     0.00000176    0.00000102    0.00021877
     atom    2 type  1   force =     0.00002955    0.00001706   -0.00020808
     atom    3 type  1   force =     0.00000412    0.00000238   -0.00000158
     atom    4 type  1   force =     0.00000184    0.00000106   -0.00001281
     atom    5 type  1   force =     0.00000294    0.00000170    0.00001653
     atom    6 type  1   force =     0.00000536    0.00000309    0.00000964
     atom    7 type  1   force =     0.00002776    0.00001603    0.00020510
     atom    8 type  1   force =     0.00000026    0.00000015   -0.00022314
     atom    9 type  1   force =     0.00000390    0.00000138    0.00021793
     atom   10 type  1   force =     0.00002884   -0.00005135   -0.00020662
     atom   11 type  1   force =    -0.00000144    0.00000044   -0.00000145
     atom   12 type  1   force =     0.00000030    0.00000219   -0.00001178
     atom   13 type  1   force =    -0.00000261   -0.00000138    0.00001708
     atom   14 type  1   force =    -0.00000192   -0.00000075    0.00000719
     atom   15 type  1   force =     0.00002965   -0.00005162    0.00020215
     atom   16 type  1   force =     0.00000554    0.00000285   -0.00022416
     atom   17 type  1   force =    -0.00000177    0.00000153    0.00021961
     atom   18 type  1   force =     0.00003205    0.00001574   -0.00019792
     atom   19 type  1   force =    -0.00000575   -0.00000108   -0.00000411
     atom   20 type  1   force =    -0.00000311   -0.00000059   -0.00001319
     atom   21 type  1   force =    -0.00000129   -0.00000183    0.00001785
     atom   22 type  1   force =    -0.00000402   -0.00000406    0.00000791
     atom   23 type  1   force =     0.00003213    0.00001620    0.00020055
     atom   24 type  1   force =    -0.00000024    0.00000198   -0.00022300
     atom   25 type  1   force =    -0.00000350   -0.00000441    0.00021655
     atom   26 type  1   force =     0.00003331   -0.00005280   -0.00020708
     atom   27 type  1   force =    -0.00000041    0.00000023    0.00000091
     atom   28 type  1   force =    -0.00000269   -0.00000032   -0.00001318
     atom   29 type  1   force =     0.00000427   -0.00000077    0.00001626
     atom   30 type  1   force =     0.00000263    0.00000081    0.00000426
     atom   31 type  1   force =     0.00003340   -0.00005173    0.00020053
     atom   32 type  1   force =    -0.00000424   -0.00000604   -0.00022237
     atom   33 type  1   force =     0.00000314    0.00000268    0.00021793
     atom   34 type  1   force =    -0.00003005    0.00005065   -0.00020662
     atom   35 type  1   force =    -0.00000034   -0.00000147   -0.00000145
     atom   36 type  1   force =     0.00000204   -0.00000084   -0.00001178
     atom   37 type  1   force =    -0.00000250   -0.00000157    0.00001708
     atom   38 type  1   force =    -0.00000161   -0.00000129    0.00000719
     atom   39 type  1   force =    -0.00002989    0.00005149    0.00020215
     atom   40 type  1   force =     0.00000524    0.00000338   -0.00022416
     atom   41 type  1   force =    -0.00000284   -0.00000164    0.00021856
     atom   42 type  1   force =    -0.00002670   -0.00001541   -0.00020440
     atom   43 type  1   force =    -0.00000418   -0.00000242    0.00000294
     atom   44 type  1   force =    -0.00000118   -0.00000068   -0.00001033
     atom   45 type  1   force =    -0.00000085   -0.00000049    0.00001618
     atom   46 type  1   force =    -0.00000347   -0.00000200    0.00000215
     atom   47 type  1   force =    -0.00002848   -0.00001644    0.00019725
     atom   48 type  1   force =    -0.00000019   -0.00000011   -0.00022612
     atom   49 type  1   force =    -0.00000428    0.00000128    0.00021730
     atom   50 type  1   force =    -0.00002603    0.00005070   -0.00020490
     atom   51 type  1   force =     0.00000078    0.00000155   -0.00000026
     atom   52 type  1   force =    -0.00000035   -0.00000081   -0.00001253
     atom   53 type  1   force =     0.00000355    0.00000209    0.00001802
     atom   54 type  1   force =     0.00000291    0.00000016    0.00000668
     atom   55 type  1   force =    -0.00002678    0.00005225    0.00020037
     atom   56 type  1   force =    -0.00000474   -0.00000077   -0.00022303
     atom   57 type  1   force =     0.00000115   -0.00000057    0.00021653
     atom   58 type  1   force =    -0.00002963   -0.00002087   -0.00021044
     atom   59 type  1   force =     0.00000512    0.00000190    0.00000382
     atom   60 type  1   force =     0.00000335    0.00000059   -0.00000997
[...]
     atom  114 type  1   force =    -0.00003297    0.00005033   -0.00020190
     atom  115 type  1   force =    -0.00000144    0.00000131   -0.00000193
     atom  116 type  1   force =     0.00000116    0.00000071   -0.00001081
     atom  117 type  1   force =    -0.00000429   -0.00000039    0.00001673
     atom  118 type  1   force =    -0.00000224   -0.00000179    0.00000712
     atom  119 type  1   force =    -0.00003292    0.00005142    0.00019968
     atom  120 type  1   force =     0.00000260    0.00000676   -0.00022332
     atom  121 type  1   force =    -0.00000304   -0.00000176    0.00021649
     atom  122 type  1   force =    -0.00003040   -0.00001755   -0.00020232
     atom  123 type  1   force =    -0.00000565   -0.00000326    0.00000245
     atom  124 type  1   force =    -0.00000227   -0.00000131   -0.00001081
     atom  125 type  1   force =    -0.00000403   -0.00000232    0.00001520
     atom  126 type  1   force =    -0.00000489   -0.00000283    0.00000044
     atom  127 type  1   force =    -0.00002983   -0.00001722    0.00019375
     atom  128 type  1   force =    -0.00000340   -0.00000196   -0.00022415

     Total force =     0.001719     Total SCF correction =     0.000225
     SCF correction compared to forces is large: reduce conv_thr to get better values
     Energy error            =      3.7E-05 Ry
     Gradient error          =      2.3E-04 Ry/Bohr

     bfgs converged in  15 scf cycles and  14 bfgs steps
     (criteria: energy <  1.0E-04 Ry, force <  1.0E-03 Ry/Bohr)

     End of BFGS Geometry Optimization

     Final energy             =  -22857.8790389506 Ry

     File ./out/ge.bfgs deleted, as requested
Begin final coordinates

ATOMIC_POSITIONS (angstrom)
Ge            1.0032510201        0.5792269430        7.2964833175
Ge            1.0034243329        0.5793271819        4.8027907999
Ge            3.0094434674        1.7375022623       10.7021037136
Ge            3.0094728738        1.7375194169        8.2197805117
Ge            5.0159546851        2.8959616237       14.0666194440
Ge            5.0159443048        2.8959558074       11.5842629137
Ge            1.0033947793        0.5793092347       17.4835497287
Ge            1.0032585462        0.5792307575       14.9898061454
Ge            3.0095989523        4.0541653180        7.2965643599
Ge            3.0097687513        4.0539061125        4.8028497318
Ge            5.0158524719        5.2127971049       10.7019229522
Ge            5.0158569093        5.2127655040        8.2195634090
Ge            7.0223708942        6.3709745548       14.0668190368
Ge            7.0223697923        6.3709456928       11.5844541361
Ge            3.0097432514        4.0538225723       17.4836325209
Ge            3.0095932034        4.0541543841       14.9899022414
Ge            5.0160151094        7.5294680427        7.2964421805
Ge            5.0162229776        7.5295306167        4.8027176167
Ge            7.0222546563        8.6877789503       10.7021071424
Ge            7.0222572774        8.6877717122        8.2197702089
Ge            9.0287194406        9.8462274718       14.0665938902
Ge            9.0287384399        9.8462470399       11.5842611318
Ge            5.0162665244        7.5295296586       17.4835453320
Ge            5.0160056819        7.5294699643       14.9897989270
Ge            7.0223918816       11.0044354995        7.2965644799
Ge            7.0226050947       11.0040805206        4.8028510785
Ge            9.0285758619       12.1630561102       10.7019010072
Ge            9.0286119342       12.1630340718        8.2195743415
Ge           11.0350319954       13.3212061528       14.0668142328
Ge           11.0350490516       13.3211857510       11.5844648645
Ge            7.0226750853       11.0041779214       17.4836285718
Ge            7.0224011486       11.0044601095       14.9898884339
Ge            5.0158094420        0.5793051885        7.2965643599
Ge            5.0156697097        0.5795821069        4.8028497318
Ge            7.0223411355        1.7374551642       10.7019229522
Ge            7.0223158338        1.7374750728        8.2195634090
Ge            9.0286118129        2.8960617208       14.0668190368
Ge            9.0285861135        2.8960754628       11.5844541361
Ge            5.0155853778        0.5796004669       17.4836325209
Ge            5.0157975582        0.5793048809       14.9899022414
Ge            7.0222201930        4.0542798320        7.2966283313
Ge            7.0221175620        4.0542207550        4.8028903185
Ge            9.0287403197        5.2127443370       10.7017231154
Ge            9.0287116945        5.2127279872        8.2193631504
Ge           11.0349615703        6.3710362860       14.0670048226
Ge           11.0349524807        6.3710312150       11.5846449683
Ge            7.0220884109        4.0542030401       17.4837202612
Ge            7.0222047792        4.0542704022       14.9899915168
Ge            9.0286010037        7.5295637407        7.2965372845
Ge            9.0284954036        7.5298162940        4.8028107346
Ge           11.0350619835        8.6876794431       10.7019101362
Ge           11.0350661493        8.6877071734        8.2195847187
Ge           13.0412701371        9.8462622571       14.0668149798
Ge           13.0412652035        9.8462976096       11.5844595880
Ge            9.0285061819        7.5298799546       17.4836381368
Ge            9.0286053043        7.5295866340       14.9898957943
Ge           11.0349231720       11.0044952775        7.2966659691
Ge           11.0347745882       11.0043037026        4.8029457579
Ge           13.0413936615       12.1629634492       10.7017323532
Ge           13.0413960208       12.1629546459        8.2193712484
[...]
Ge           17.0537570076        7.5298267377        4.8028187518
Ge           19.0605386982        8.6876801688       10.7019230528
Ge           19.0605106054        8.6876946930        8.2195511853
Ge           21.0668118957        9.8462919342       14.0668287874
Ge           21.0667890388        9.8463160072       11.5844508644
Ge           17.0537355274        7.5297749636       17.4836416219
Ge           17.0539857775        7.5295300045       14.9899070270
Ge           19.0603991033       11.0045245002        7.2966473733
Ge           19.0601931783       11.0044057864        4.8029083307
Ge           21.0669393382       12.1630006147       10.7017304600
Ge           21.0669084409       12.1629829531        8.2193555539
Ge           23.0731652863       13.3212952757       14.0670030228
Ge           23.0731583558       13.3212914513       11.5846363862
Ge           19.0602612717       11.0044442156       17.4837286293
Ge           19.0604004955       11.0045247733       14.9899944012
End final coordinates

     Writing output data file ./out/ge.save/

     General routines

     Parallel routines

   This run was terminated on:  11:36:52  28Apr2025

   JOB DONE.