     Program PWSCF v.6.8 starts on 19May2025 at 17:36:17

     R & G space division:  proc/nbgrp/npool/nimage =      56

     Reading input from supercell-015.in

     Current dimensions of program PWSCF are:
     Max number of different atomic species (ntypx) = 10
     Max number of k-points (npk) =  40000
     Max angular momentum in pseudopotentials (lmaxx) =  4

     Using Slab Decomposition

     bravais-lattice index     =            0
     lattice parameter (alat)  =      16.4683  a.u.
     unit-cell volume          =   10586.5407 (a.u.)^3
     number of atoms/cell      =          162
     number of atomic types    =            2
     number of electrons       =      1404.00
     number of Kohn-Sham states=          702
     kinetic-energy cutoff     =      60.0000  Ry
     charge density cutoff     =     240.0000  Ry
     scf convergence threshold =      1.0E-08
     mixing beta               =       0.7000
     number of iterations used =            8  plain     mixing
     Exchange-correlation= PBE
                           (   1   4   3   4   0   0   0)

     celldm(1)=  16.468320  celldm(2)=   0.000000  celldm(3)=   0.000000
     celldm(4)=   0.000000  celldm(5)=   0.000000  celldm(6)=   0.000000

     crystal axes: (cart. coord. in units of alat)
               a(1) = (   1.000000   0.000000   0.000000 )
               a(2) = (   0.000000   1.539583   0.000000 )
               a(3) = (   0.000000   0.000000   1.539583 )

     reciprocal axes: (cart. coord. in units 2 pi/alat)
               b(1) = (  1.000000  0.000000  0.000000 )
               b(2) = (  0.000000  0.649527  0.000000 )
               b(3) = (  0.000000  0.000000  0.649527 )

     PseudoPot. # 1 for Ge read from file:
     ./Ge.upf
     MD5 check sum: 087fa14d6c89b52166990835c3b338da
     Pseudo is Norm-conserving + core correction, Zval = 14.0
     Generated using ONCVPSP code by D. R. Hamann
     Using radial grid of 1560 points,  6 beta functions with:
                l(1) =   0
                l(2) =   0
                l(3) =   1
                l(4) =   1
                l(5) =   2
                l(6) =   2

     PseudoPot. # 2 for O  read from file:
     ./O.upf
     MD5 check sum: 9db02a5ece9d56b81b65a73f8163743d
     Pseudo is Norm-conserving + core correction, Zval =  6.0
     Generated using ONCVPSP code by D. R. Hamann
     Using radial grid of  936 points,  5 beta functions with:
                l(1) =   0
                l(2) =   0
                l(3) =   1
                l(4) =   1
                l(5) =   2

     atomic species   valence    mass     pseudopotential
        Ge            14.00    72.64000     Ge( 1.00)
        O              6.00    15.99940     O ( 1.00)

     No symmetry found

   Cartesian axes

     site n.     atom                  positions (alat units)
         1           Ge  tau(   1) = (   0.1668459   0.2567076   0.2567076  )
         2           Ge  tau(   2) = (   0.5001793   0.2567076   0.2567076  )
         3           Ge  tau(   3) = (   0.8335126   0.2567076   0.2567076  )
         4           Ge  tau(   4) = (   0.1668459   0.7699019   0.2567076  )
         5           Ge  tau(   5) = (   0.5001793   0.7699019   0.2567076  )
         6           Ge  tau(   6) = (   0.8335126   0.7699019   0.2567076  )
         7           Ge  tau(   7) = (   0.1668459   1.2830962   0.2567076  )
         8           Ge  tau(   8) = (   0.5001793   1.2830962   0.2567076  )
         9           Ge  tau(   9) = (   0.8335126   1.2830962   0.2567076  )
        10           Ge  tau(  10) = (   0.1668459   0.2567076   0.7699019  )
        11           Ge  tau(  11) = (   0.5001793   0.2567076   0.7699019  )
        12           Ge  tau(  12) = (   0.8335126   0.2567076   0.7699019  )
        13           Ge  tau(  13) = (   0.1668459   0.7699019   0.7699019  )
        14           Ge  tau(  14) = (   0.5001793   0.7699019   0.7699019  )
        15           Ge  tau(  15) = (   0.8335126   0.7699019   0.7699019  )
        16           Ge  tau(  16) = (   0.1668459   1.2830962   0.7699019  )
        17           Ge  tau(  17) = (   0.5001793   1.2830962   0.7699019  )
        18           Ge  tau(  18) = (   0.8335126   1.2830962   0.7699019  )
        19           Ge  tau(  19) = (   0.1668459   0.2567076   1.2830962  )
        20           Ge  tau(  20) = (   0.5001793   0.2567076   1.2830962  )
        21           Ge  tau(  21) = (   0.8335126   0.2567076   1.2830962  )
        22           Ge  tau(  22) = (   0.1668459   0.7699019   1.2830962  )
        23           Ge  tau(  23) = (   0.5001793   0.7699019   1.2830962  )
        24           Ge  tau(  24) = (   0.8335126   0.7699019   1.2830962  )
        25           Ge  tau(  25) = (   0.1668459   1.2830962   1.2830962  )
        26           Ge  tau(  26) = (   0.5001793   1.2830962   1.2830962  )
        27           Ge  tau(  27) = (   0.8335126   1.2830962   1.2830962  )
        28           Ge  tau(  28) = (   0.0002011   0.0001111   0.0001111  )
        29           Ge  tau(  29) = (   0.3335344   0.0001111   0.0001111  )
        30           Ge  tau(  30) = (   0.6668677   0.0001111   0.0001111  )
        31           Ge  tau(  31) = (   0.0002011   0.5133054   0.0001111  )
        32           Ge  tau(  32) = (   0.3335344   0.5133054   0.0001111  )
        33           Ge  tau(  33) = (   0.6668677   0.5133054   0.0001111  )
        34           Ge  tau(  34) = (   0.0002011   1.0264997   0.0001111  )
        35           Ge  tau(  35) = (   0.3335344   1.0264997   0.0001111  )
        36           Ge  tau(  36) = (   0.6668677   1.0264997   0.0001111  )
        37           Ge  tau(  37) = (   0.0002011   0.0001111   0.5133054  )
        38           Ge  tau(  38) = (   0.3335344   0.0001111   0.5133054  )
        39           Ge  tau(  39) = (   0.6668677   0.0001111   0.5133054  )
        40           Ge  tau(  40) = (   0.0002011   0.5133054   0.5133054  )
        41           Ge  tau(  41) = (   0.3335344   0.5133054   0.5133054  )
        42           Ge  tau(  42) = (   0.6668677   0.5133054   0.5133054  )
        43           Ge  tau(  43) = (   0.0002011   1.0264997   0.5133054  )
        44           Ge  tau(  44) = (   0.3335344   1.0264997   0.5133054  )
        45           Ge  tau(  45) = (   0.6668677   1.0264997   0.5133054  )
        46           Ge  tau(  46) = (   0.0002011   0.0001111   1.0264997  )
        47           Ge  tau(  47) = (   0.3335344   0.0001111   1.0264997  )
        48           Ge  tau(  48) = (   0.6668677   0.0001111   1.0264997  )
        49           Ge  tau(  49) = (   0.0002011   0.5133054   1.0264997  )
        50           Ge  tau(  50) = (   0.3335344   0.5133054   1.0264997  )
        51           Ge  tau(  51) = (   0.6668677   0.5133054   1.0264997  )
        52           Ge  tau(  52) = (   0.0002011   1.0264997   1.0264997  )
        53           Ge  tau(  53) = (   0.3335344   1.0264997   1.0264997  )
        54           Ge  tau(  54) = (   0.6668677   1.0264997   1.0264997  )
        55           O   tau(  55) = (   0.0001875   0.3558055   0.3558055  )
        56           O   tau(  56) = (   0.3335209   0.3558055   0.3558055  )
        57           O   tau(  57) = (   0.6668542   0.3558055   0.3558055  )
        58           O   tau(  58) = (   0.0001875   0.8689998   0.3558055  )
        59           O   tau(  59) = (   0.3335209   0.8689998   0.3558055  )
        60           O   tau(  60) = (   0.6668542   0.8689998   0.3558055  )
[...]
       148           O   tau( 148) = (   0.1668565   0.6124165   0.9274215  )
       149           O   tau( 149) = (   0.5001898   0.6124165   0.9274215  )
       150           O   tau( 150) = (   0.8335231   0.6124165   0.9274215  )
       151           O   tau( 151) = (   0.1668565   1.1256108   0.9274215  )
       152           O   tau( 152) = (   0.5001898   1.1256108   0.9274215  )
       153           O   tau( 153) = (   0.8335231   1.1256108   0.9274215  )
       154           O   tau( 154) = (   0.1668565   0.0992221   1.4406159  )
       155           O   tau( 155) = (   0.5001898   0.0992221   1.4406159  )
       156           O   tau( 156) = (   0.8335231   0.0992221   1.4406159  )
       157           O   tau( 157) = (   0.1668565   0.6124165   1.4406159  )
       158           O   tau( 158) = (   0.5001898   0.6124165   1.4406159  )
       159           O   tau( 159) = (   0.8335231   0.6124165   1.4406159  )
       160           O   tau( 160) = (   0.1668565   1.1256108   1.4406159  )
       161           O   tau( 161) = (   0.5001898   1.1256108   1.4406159  )
       162           O   tau( 162) = (   0.8335231   1.1256108   1.4406159  )

     number of k points=     8
                       cart. coord. in units 2pi/alat
        k(    1) = (   0.0000000   0.0000000   0.0000000), wk =   0.1666667
        k(    2) = (   0.0000000   0.0000000  -0.3247633), wk =   0.1666667
        k(    3) = (   0.0000000  -0.3247633  -0.3247633), wk =   0.1666667
        k(    4) = (   0.3333333   0.0000000   0.0000000), wk =   0.3333333
        k(    5) = (   0.3333333   0.0000000  -0.3247633), wk =   0.3333333
        k(    6) = (   0.3333333  -0.3247633  -0.3247633), wk =   0.3333333
        k(    7) = (   0.0000000  -0.3247633   0.0000000), wk =   0.1666667
        k(    8) = (  -0.3333333  -0.3247633   0.0000000), wk =   0.3333333

     Check: negative core charge=   -0.000052

     Initial potential from superposition of free atoms

     starting charge 1403.95515, renormalised to 1404.00000
     Starting wfcs are  918 randomized atomic wfcs

     Self-consistent Calculation

     iteration #  1     ecut=    60.00 Ry     beta= 0.70
     Davidson diagonalization with overlap
     ethr =  1.00E-02,  avg # of iterations =  2.0

     total energy              =  -13210.92743479 Ry
     estimated scf accuracy    <      34.04767022 Ry

[...]

     total energy              =  -13225.90720831 Ry
     estimated scf accuracy    <       0.00000002 Ry

     iteration # 14     ecut=    60.00 Ry     beta= 0.70
     Davidson diagonalization with overlap
     ethr =  1.69E-12,  avg # of iterations =  2.5

     End of self-consistent calculation

          k = 0.0000 0.0000 0.0000 ( 83133 PWs)   bands (ev):

   -14.2937 -14.2532 -14.2524 -14.2517 -14.2511 -14.2357 -14.2348 -14.2344
   -14.2340 -14.2223 -14.2200 -14.2195 -14.2193 -14.2192 -14.2190 -14.2189
   -14.2189 -14.2172 -14.2171 -14.2170 -14.2170 -14.2168 -14.2168 -14.2162
   -14.2160 -14.2121 -14.2117 -14.2116 -14.2113 -14.2112 -14.2111 -14.2108
   -14.2108 -14.1894 -14.1886 -14.1881 -14.1878 -14.1851 -14.1840 -14.1835
   -14.1834 -14.1830 -14.1827 -14.1827 -14.1822 -14.1816 -14.1814 -14.1812
   -14.1811 -14.1634 -14.1627 -14.1620 -14.1614 -14.1205 -14.1194 -14.1192
   -14.0663 -14.0659 -14.0656 -14.0655 -14.0650 -14.0650 -14.0648 -14.0641
   -14.0415 -14.0415 -14.0411 -14.0410 -14.0405 -14.0404 -14.0400 -14.0397
   -14.0153 -14.0149 -14.0148 -14.0146 -14.0142 -14.0141 -14.0138 -14.0135
   -13.9935 -13.9933 -13.9928 -13.9916 -13.9915 -13.9914 -13.9912 -13.9911
   -13.9909 -13.9907 -13.9906 -13.9902 -13.9894 -13.9894 -13.9883 -13.9876
[...]
   -13.9807 -13.9806 -13.9800 -13.9791 -13.9784 -13.9640 -13.9631 -13.9625
   -13.9620 -13.9579 -13.9575 -13.9568 -13.9560 -13.9428 -13.9390 -13.9384
   -13.9376 -13.9370 -13.9369 -13.9366 -13.9364 -13.9363 -13.9361 -13.9361
   -13.9360 -13.9358 -13.9358 -13.9357 -13.9357 -13.9355 -13.9355 -13.9352
   -13.9352 -13.9349 -13.9347 -13.9347 -13.9346 -13.9346 -13.9345 -13.9345
   -13.9343 -13.9339 -13.9336 -13.9333 -13.9330 -13.9327 -13.9324 -13.9313
   -13.9300 -13.9289 -13.9285 -13.9271 -13.9224 -13.9203 -13.9199 -13.9196
   -13.9193 -13.9192 -13.9188 -13.9188 -13.9170 -13.9165 -13.9155 -13.9153
   -13.9148 -13.9147 -13.9145 -13.9145 -13.9143 -13.9143 -13.9141 -13.9141
   -13.9139 -13.9139 -13.9134 -13.9134 -13.9134 -13.9133 -13.9132 -13.9127
   -13.9127 -13.9122 -13.9121 -13.9116 -13.9109 -13.9106 -13.9095 -13.9070
   -13.9056 -13.9047 -13.9038 -13.9038 -13.9031 -13.9024 -13.9024 -13.9021
   -13.9016 -13.8990 -13.8975 -13.8963 -13.8963 -13.8959 -13.8958 -13.8958
   -13.8956 -13.8954 -13.8952 -13.8950 -13.8949 -13.8948 -13.8945 -13.8945
   -13.8943 -13.8942 -13.8941 -13.8939 -13.8936 -13.8928 -13.8922 -13.8921
   -13.8921 -13.8917 -13.8916 -13.8915 -13.8914 -13.8911 -13.8909 -13.8909
   -13.8908 -13.8906 -13.8904 -13.8903 -13.8902 -13.8897 -13.8892 -13.8886
   -13.8884 -13.8877 -13.8874 -13.8867 -13.8865 -13.8861 -13.8860 -13.8858
   -13.8857 -13.8855 -13.8854 -13.8851 -13.8849 -13.8849 -13.8847 -13.8846
   -13.8842 -13.8840 -13.8835 -13.8832 -13.8816 -13.8814 -10.2581  -9.7884
    -9.7878  -9.7873  -9.7869  -9.3403  -9.3401  -9.3398  -9.3394  -9.1869
    -9.1867  -8.8139  -8.8136  -8.8129  -8.8128  -8.8126  -8.8123  -8.8121
    -8.8115  -8.5485  -8.5480  -8.5474  -8.5470  -8.4906  -8.4902  -8.4893
    -8.4890  -8.4890  -8.4889  -8.4887  -8.4884  -8.4735  -8.4726  -8.4722
    -8.4715  -7.9441  -7.9431  -7.9422  -7.9421  -7.9419  -7.9417  -7.9413
    -7.9412  -7.8871  -7.8863  -7.8856  -7.8856  -7.8851  -7.8851  -7.8848
    -7.8846  -7.5845  -7.5837  -7.5832  -7.5826  -7.4328  -7.4325  -7.1663
    -7.1657  -7.1057  -7.1050  -7.1049  -7.1046  -6.9713  -6.9707  -6.9701
    -6.9697  -6.7963  -6.7957  -6.7953  -6.7951  -6.7950  -6.7946  -6.7940
    -6.7933  -6.7338  -6.6771  -6.6771  -6.6771  -6.6763  -6.5959  -6.5956
    -6.5953  -6.5952  -6.5950  -6.5946  -6.5944  -6.5937  -6.5871  -6.5862
    -6.5855  -6.5848  -6.5751  -6.5746  -6.5743  -6.5742  -6.5741  -6.5740
    -6.5736  -6.5728  -6.5017  -6.5012  -6.5010  -6.5007  -6.5006  -6.5004
    -6.5000  -6.4994   0.4412   0.4860   0.4868   1.2365   1.2368   1.2372
     1.2375   1.2377   1.2379   1.2381   1.2391   1.2946   1.2951   1.2957
     1.2974   1.3117   1.3126   1.3129   1.3131   1.3132   1.3137   1.3138
     1.3156   1.8133   1.8141   1.8144   1.8148   1.8149   1.8151   1.8153
     1.8165   2.2361   2.2369   2.2372   2.2386   2.8192   2.8202   2.8207
     2.8211   2.8211   2.8217   2.8218   2.8223   3.3699   3.3705   3.4060
     3.4063   3.4067   3.4074   3.6826   3.6833   3.6838   3.6842   3.8358
     3.8363   3.8368   3.8369   3.8372   3.8373   3.8378   3.8381   4.1550
     4.1554   4.1554   4.1555   4.1560   4.1560   4.1564   4.1569   4.6108
     4.6115   4.6119   4.6119   4.6120   4.6121   4.6123   4.6127   4.9210
     4.9212   4.9214   4.9216   4.9218   4.9220   4.9224   4.9227   4.9272
     4.9273   5.0084   5.0087   5.0090   5.0090   5.0092   5.0093   5.0096
     5.0101   5.2208   5.2217   5.4183   5.4191   5.4195   5.4202   5.5932
[...]
     8.0950   8.0953   8.0962   8.1636   8.1640   8.1643   8.1647   8.3030
     8.3034   8.3041   8.3045   8.4448   8.4455   8.4459   8.4467   8.4873
     8.4873   8.4875   8.4877   8.4879   8.4880   8.4882   8.4896   8.5170
     8.5172   8.6104   8.6110   8.6115   8.6117   8.6254   8.6260   8.6264
     8.6269   8.6503   8.6507   8.6507   8.6511   8.6513   8.6514   8.6515
     8.6518   8.7154   8.7159   8.7167   8.7173   8.9307   8.9314   8.9318
     8.9321   8.9325   8.9325   8.9330   8.9333   9.0438   9.0444   9.0448
     9.0449   9.0451   9.0453   9.0456   9.0457   9.1439   9.1440   9.1442
     9.1445   9.1536   9.1536   9.1538   9.1540   9.1540   9.1544   9.1545
     9.1549   9.2553   9.2557   9.2561   9.2561   9.2564   9.2565   9.2566
     9.2573   9.2852   9.2856   9.2862   9.2865   9.4636   9.4637   9.5290
     9.5302   9.5306   9.5310   9.5390   9.5393   9.5401   9.5402   9.5406
     9.5407   9.5414   9.5415   9.5836   9.5837   9.5841   9.5843   9.5847
     9.5847   9.5849   9.5853   9.6804   9.6809   9.6812   9.6816   9.7106
     9.7108   9.9183   9.9194   9.9200   9.9212  10.4931

[...]

          k = 0.0000-0.3248 0.0000 ( 83134 PWs)   bands (ev):

[...]

          k =-0.3333-0.3248 0.0000 ( 83068 PWs)   bands (ev):

   -14.2757 -14.2747 -14.2730 -14.2728 -14.2723 -14.2719 -14.2594 -14.2574
   -14.2512 -14.2499 -14.2495 -14.2494 -14.2465 -14.2462 -14.2454 -14.2453
   -14.2449 -14.2435 -14.2419 -14.2400 -14.2235 -14.2228 -14.2211 -14.2209
   -14.1969 -14.1951 -14.1867 -14.1864 -14.1857 -14.1856 -14.1835 -14.1834
   -14.1812 -14.1810 -14.1794 -14.1790 -14.1652 -14.1651 -14.1458 -14.1451
   -14.1434 -14.1433 -14.1414 -14.1413 -14.1409 -14.1408 -14.1304 -14.1302
   -14.1286 -14.1283 -14.1114 -14.1099 -14.1060 -14.1040 -14.0882 -14.0863
   -14.0792 -14.0786 -14.0776 -14.0768 -14.0763 -14.0760 -14.0758 -14.0755
   -14.0479 -14.0478 -14.0361 -14.0361 -14.0346 -14.0342 -14.0332 -14.0314
   -14.0293 -14.0277 -14.0244 -14.0217 -14.0212 -14.0207 -14.0206 -14.0205
   -14.0200 -14.0196 -14.0196 -14.0194 -14.0192 -14.0186 -14.0182 -14.0181
   -14.0179 -14.0179 -14.0177 -14.0176 -14.0173 -14.0169 -14.0168 -14.0166
   -14.0165 -14.0154 -14.0148 -14.0147 -13.9993 -13.9975 -13.9851 -13.9850
   -13.9821 -13.9821 -13.9811 -13.9805 -13.9781 -13.9760 -13.9718 -13.9711
   -13.9695 -13.9691 -13.9641 -13.9640 -13.9633 -13.9630 -13.9602 -13.9600
   -13.9571 -13.9547 -13.9530 -13.9524 -13.9510 -13.9504 -13.9499 -13.9491
   -13.9488 -13.9486 -13.9485 -13.9480 -13.9476 -13.9471 -13.9468 -13.9466
   -13.9465 -13.9462 -13.9449 -13.9446 -13.9441 -13.9437 -13.9432 -13.9431
   -13.9428 -13.9427 -13.9425 -13.9421 -13.9419 -13.9414 -13.9404 -13.9401
   -13.9390 -13.9377 -13.9371 -13.9367 -13.9350 -13.9348 -13.9334 -13.9322
   -13.9316 -13.9306 -13.9210 -13.9187 -13.9174 -13.9172 -13.9170 -13.9164
   -13.9163 -13.9161 -13.9157 -13.9152 -13.9149 -13.9148 -13.9145 -13.9137
   -13.9136 -13.9122 -13.9119 -13.9114 -13.9106 -13.9102 -13.9082 -13.9081
   -13.9073 -13.9063 -13.9060 -13.9052 -13.9048 -13.9047 -13.9032 -13.9027
   -13.9022 -13.9018 -13.9016 -13.9012 -13.9008 -13.9004 -13.9001 -13.8999
   -13.8995 -13.8990 -13.8986 -13.8984 -13.8979 -13.8977 -13.8970 -13.8963
   -13.8963 -13.8960 -13.8956 -13.8949 -13.8945 -13.8944 -13.8942 -13.8938
   -13.8936 -13.8934 -13.8932 -13.8930 -13.8927 -13.8924 -13.8923 -13.8919
   -13.8918 -13.8916 -13.8914 -13.8911 -13.8909 -13.8907 -13.8904 -13.8902
   -13.8902 -13.8897 -13.8897 -13.8894 -13.8892 -13.8890 -13.8890 -13.8885
   -13.8884 -13.8883 -13.8882 -13.8881 -13.8880 -13.8878 -13.8878 -13.8876
   -13.8874 -13.8871 -13.8870 -13.8869 -13.8869 -13.8868 -13.8866 -13.8863
   -13.8862 -13.8861 -13.8858 -13.8857 -13.8855 -13.8854 -13.8849 -13.8845
   -13.8843 -13.8839 -13.8832 -13.8828 -13.8820 -13.8806 -10.0172 -10.0153
    -9.6575  -9.6556  -9.5559  -9.5556  -9.5540  -9.5537  -9.2226  -9.2223
    -9.2207  -9.2204  -9.1246  -9.1239  -8.8135  -8.8128  -8.7721  -8.7712
    -8.7709  -8.7707  -8.5160  -8.5151  -8.5148  -8.5145  -8.4025  -8.4005
    -8.3893  -8.3887  -8.3877  -8.3868  -8.1932  -8.1927  -8.1913  -8.1907
    -8.1435  -8.1431  -8.1420  -8.1411  -8.0371  -8.0367  -7.9232  -7.9228
    -7.9224  -7.9220  -7.8474  -7.8468  -7.8455  -7.8448  -7.7564  -7.7546
    -7.7441  -7.7422  -7.5160  -7.5146  -7.2763  -7.2762  -7.2757  -7.2754
    -7.2384  -7.2364  -7.2199  -7.2191  -7.2179  -7.2171  -7.0273  -7.0271
    -7.0267  -7.0263  -6.9698  -6.9692  -6.9681  -6.9673  -6.9654  -6.9635
    -6.7468  -6.7465  -6.6327  -6.6319  -6.6305  -6.6299  -6.6118  -6.6117
    -6.5926  -6.5916  -6.5858  -6.5841  -6.5550  -6.5546  -6.5540  -6.5534
    -6.5480  -6.5474  -6.5461  -6.5456  -6.5137  -6.5129  -6.5113  -6.5110
    -6.5059  -6.5053  -6.4965  -6.4958  -6.4943  -6.4937  -6.4612  -6.4591
    -6.4449  -6.4428   0.6508   0.6528   0.6606   0.6630   0.8179   0.8184
     0.8188   0.8195   1.0503   1.0505   1.0513   1.0518   1.0725   1.0744
     1.5126   1.5133   1.5147   1.5154   1.5683   1.5692   1.5705   1.5720
     1.7332   1.7336   1.7788   1.7796   1.7798   1.7804   1.9158   1.9177
     2.2762   2.2767   2.2771   2.2778   2.3166   2.3170   2.3956   2.3959
     2.9141   2.9144   2.9147   2.9157   3.1325   3.1331   3.1334   3.1340
     3.4981   3.4987   3.5000   3.5006   3.6176   3.6182   3.8327   3.8334
     3.8337   3.8341   4.1899   4.1903   4.1907   4.1909   4.2260   4.2264
     4.4533   4.4538   4.4539   4.4546   4.5340   4.5350   4.5875   4.5886
     4.5987   4.5993   4.6005   4.6013   4.6760   4.6768   4.6772   4.6775
     4.6788   4.6803   4.7876   4.7886   4.8175   4.8179   4.9789   4.9791
     4.9796   4.9798   5.0294   5.0301   5.0818   5.0821   5.1145   5.1145
     5.1322   5.1335   5.2433   5.2438   5.2769   5.2776   5.2788   5.2794
[...]
     8.0263   8.0283   8.0602   8.0614   8.1320   8.1336   8.1498   8.1502
     8.1504   8.1506   8.2196   8.2197   8.2201   8.2209   8.2792   8.2797
     8.3485   8.3489   8.3793   8.3801   8.3803   8.3812   8.4465   8.4471
     8.4477   8.4482   8.4642   8.4646   8.5502   8.5503   8.5515   8.5521
     8.7069   8.7071   8.7076   8.7077   8.7103   8.7108   8.7120   8.7125
     8.7498   8.7503   8.7517   8.7537   8.8674   8.8678   8.8686   8.8695
     8.8697   8.8699   8.8701   8.8705   8.9266   8.9269   8.9272   8.9275
     8.9421   8.9424   9.0114   9.0119   9.0123   9.0124   9.0425   9.0428
     9.0523   9.0527   9.0533   9.0536   9.2342   9.2344   9.2392   9.2398
     9.2409   9.2414   9.3156   9.3175   9.3449   9.3453   9.3455   9.3457
     9.3772   9.3782   9.3792   9.3794   9.3797   9.3813   9.3971   9.3977
     9.3979   9.3980   9.4531   9.4554   9.4774   9.4782   9.4857   9.4861
     9.4862   9.4865   9.4992   9.4999   9.5010   9.5014   9.6310   9.6319
     9.6568   9.6591   9.8241   9.8248   9.8264   9.8269   9.8799   9.8808
     9.8821   9.8828   9.9956   9.9979  10.2542  10.2565

     highest occupied level (ev):    10.4931

!    total energy              =  -13225.90720831 Ry
     estimated scf accuracy    <          2.6E-09 Ry

     The total energy is the sum of the following terms:
     one-electron contribution =   -4400.41937937 Ry
     hartree contribution      =    3316.32241171 Ry
     xc contribution           =   -3278.83969578 Ry
     ewald contribution        =   -8862.97054486 Ry

     convergence has been achieved in  14 iterations

     Forces acting on atoms (cartesian axes, Ry/au):

     atom    1 type  1   force =     0.00004040    0.00091931   -0.00044776
     atom    2 type  1   force =     0.00034204    0.00017460    0.00004195
     atom    3 type  1   force =    -0.00026230    0.00017400    0.00004152
     atom    4 type  1   force =     0.00004043   -0.00019502   -0.00027602
     atom    5 type  1   force =    -0.00020407   -0.00005317   -0.00019586
     atom    6 type  1   force =     0.00028450   -0.00005290   -0.00019543
     atom    7 type  1   force =     0.00003948   -0.00010773    0.00002582
     atom    8 type  1   force =     0.00004456   -0.00008575    0.00001597
     atom    9 type  1   force =     0.00003564   -0.00008566    0.00001617
     atom   10 type  1   force =     0.00004050    0.00002853    0.00006926
     atom   11 type  1   force =     0.00003947    0.00002487    0.00006315
     atom   12 type  1   force =     0.00004081    0.00002566    0.00006339
     atom   13 type  1   force =     0.00004060    0.00003056    0.00003002
     atom   14 type  1   force =     0.00003755    0.00002789    0.00003446
     atom   15 type  1   force =     0.00004411    0.00002808    0.00003428
     atom   16 type  1   force =     0.00004055   -0.00003094    0.00005518
     atom   17 type  1   force =     0.00003992   -0.00002600    0.00005177
     atom   18 type  1   force =     0.00004069   -0.00002669    0.00005112
     atom   19 type  1   force =     0.00003966    0.00013883   -0.00012174
     atom   20 type  1   force =     0.00003440    0.00007473   -0.00001023
     atom   21 type  1   force =     0.00004543    0.00007498   -0.00000982
     atom   22 type  1   force =     0.00003980   -0.00042747    0.00049334
     atom   23 type  1   force =    -0.00005340    0.00000182    0.00007583
     atom   24 type  1   force =     0.00013466    0.00000195    0.00007547
     atom   25 type  1   force =     0.00003990   -0.00005334    0.00003163
     atom   26 type  1   force =     0.00004334   -0.00004241    0.00003278
     atom   27 type  1   force =     0.00003677   -0.00004268    0.00003309
     atom   28 type  1   force =    -0.00009533   -0.00025876   -0.00024795
     atom   29 type  1   force =    -0.00001676   -0.00025869   -0.00024811
     atom   30 type  1   force =    -0.00005634   -0.00004062   -0.00006605
     atom   31 type  1   force =    -0.00048219    0.00130348   -0.00075823
     atom   32 type  1   force =     0.00036784    0.00130266   -0.00075650
     atom   33 type  1   force =    -0.00005647    0.00016370   -0.00004851
     atom   34 type  1   force =    -0.00004202   -0.00012787   -0.00002265
     atom   35 type  1   force =    -0.00007068   -0.00012871   -0.00002211
     atom   36 type  1   force =    -0.00005711   -0.00006251    0.00001365
     atom   37 type  1   force =    -0.00007806   -0.00007318    0.00007159
     atom   38 type  1   force =    -0.00003520   -0.00007302    0.00007218
     atom   39 type  1   force =    -0.00005629   -0.00005569    0.00004207
     atom   40 type  1   force =    -0.00002638    0.00026125    0.00008103
     atom   41 type  1   force =    -0.00008759    0.00026101    0.00008028
     atom   42 type  1   force =    -0.00005683    0.00012090   -0.00000295
     atom   43 type  1   force =    -0.00004482   -0.00005769   -0.00006810
     atom   44 type  1   force =    -0.00006995   -0.00005746   -0.00006850
     atom   45 type  1   force =    -0.00005622   -0.00001613   -0.00003055
     atom   46 type  1   force =    -0.00005559    0.00000412    0.00004399
     atom   47 type  1   force =    -0.00005726    0.00000414    0.00004381
     atom   48 type  1   force =    -0.00005678   -0.00000059    0.00004285
     atom   49 type  1   force =    -0.00004641    0.00010171    0.00012424
     atom   50 type  1   force =    -0.00006754    0.00010118    0.00012469
     atom   51 type  1   force =    -0.00005718    0.00006229    0.00007552
     atom   52 type  1   force =    -0.00004927   -0.00002463    0.00005846
     atom   53 type  1   force =    -0.00006493   -0.00002420    0.00005812
     atom   54 type  1   force =    -0.00005680   -0.00001621    0.00005264
     atom   55 type  2   force =     0.00021267   -0.00113017   -0.00127815
     atom   56 type  2   force =    -0.00022381   -0.00113019   -0.00127818
     atom   57 type  2   force =    -0.00000547   -0.00102778   -0.00099166
     atom   58 type  2   force =    -0.00000811   -0.00080650   -0.00084089
     atom   59 type  2   force =    -0.00000869   -0.00080640   -0.00084080
     atom   60 type  2   force =    -0.00000845   -0.00089950   -0.00093958
[...]
     atom  148 type  2   force =     0.00001737   -0.00105776    0.00096576
     atom  149 type  2   force =     0.00002960   -0.00106387    0.00096939
     atom  150 type  2   force =     0.00000516   -0.00106386    0.00096942
     atom  151 type  2   force =     0.00001791   -0.00075019    0.00095288
     atom  152 type  2   force =     0.00001800   -0.00075230    0.00095616
     atom  153 type  2   force =     0.00001785   -0.00075225    0.00095613
     atom  154 type  2   force =     0.00001290   -0.00073586    0.00092500
     atom  155 type  2   force =    -0.00001942   -0.00083211    0.00085787
     atom  156 type  2   force =     0.00004527   -0.00083213    0.00085786
     atom  157 type  2   force =     0.00001497    0.00027959   -0.00072783
     atom  158 type  2   force =     0.00010517   -0.00110718    0.00082137
     atom  159 type  2   force =    -0.00007519   -0.00110721    0.00082144
     atom  160 type  2   force =     0.00001576   -0.00070718    0.00075383
     atom  161 type  2   force =     0.00002586   -0.00070903    0.00075752
     atom  162 type  2   force =     0.00000564   -0.00070899    0.00075751

     Total force =     0.014637     Total SCF correction =     0.000059

     General routines

     Parallel routines

   This run was terminated on:  17:59:48  19May2025

   JOB DONE.