     Program PWSCF v.6.8 starts on 19May2025 at 17:37:18

     R & G space division:  proc/nbgrp/npool/nimage =      56

     Reading input from supercell.in

     Current dimensions of program PWSCF are:
     Max number of different atomic species (ntypx) = 10
     Max number of k-points (npk) =  40000
     Max angular momentum in pseudopotentials (lmaxx) =  4
     Found symmetry operation: I + (  0.3333  0.0000  0.0000)
     This is a supercell, fractional translations are disabled
     Message from routine setup:
     using ibrav=0 with symmetry is DISCOURAGED, use correct ibrav instead

     Using Slab Decomposition

     bravais-lattice index     =            0
     lattice parameter (alat)  =      16.4683  a.u.
     unit-cell volume          =   10586.5407 (a.u.)^3
     number of atoms/cell      =          162
     number of atomic types    =            2
     number of electrons       =      1404.00
     number of Kohn-Sham states=          702
     kinetic-energy cutoff     =      60.0000  Ry
     charge density cutoff     =     240.0000  Ry
     scf convergence threshold =      1.0E-08
     mixing beta               =       0.7000
     number of iterations used =            8  plain     mixing
     Exchange-correlation= PBE
                           (   1   4   3   4   0   0   0)

     celldm(1)=  16.468320  celldm(2)=   0.000000  celldm(3)=   0.000000
     celldm(4)=   0.000000  celldm(5)=   0.000000  celldm(6)=   0.000000

     crystal axes: (cart. coord. in units of alat)
               a(1) = (   1.000000   0.000000   0.000000 )
               a(2) = (   0.000000   1.539583   0.000000 )
               a(3) = (   0.000000   0.000000   1.539583 )

     reciprocal axes: (cart. coord. in units 2 pi/alat)
               b(1) = (  1.000000  0.000000  0.000000 )
               b(2) = (  0.000000  0.649527  0.000000 )
               b(3) = (  0.000000  0.000000  0.649527 )

     PseudoPot. # 1 for Ge read from file:
     ./Ge.upf
     MD5 check sum: 087fa14d6c89b52166990835c3b338da
     Pseudo is Norm-conserving + core correction, Zval = 14.0
     Generated using ONCVPSP code by D. R. Hamann
     Using radial grid of 1560 points,  6 beta functions with:
                l(1) =   0
                l(2) =   0
                l(3) =   1
                l(4) =   1
                l(5) =   2
                l(6) =   2

     PseudoPot. # 2 for O  read from file:
     ./O.upf
     MD5 check sum: 9db02a5ece9d56b81b65a73f8163743d
     Pseudo is Norm-conserving + core correction, Zval =  6.0
     Generated using ONCVPSP code by D. R. Hamann
     Using radial grid of  936 points,  5 beta functions with:
                l(1) =   0
                l(2) =   0
                l(3) =   1
                l(4) =   1
                l(5) =   2

     atomic species   valence    mass     pseudopotential
        Ge            14.00    72.64000     Ge( 1.00)
        O              6.00    15.99940     O ( 1.00)

      2 Sym. Ops. (no inversion) found

   Cartesian axes

     site n.     atom                  positions (alat units)
         1           Ge  tau(   1) = (   0.1668459   0.2567076   0.2567076  )
         2           Ge  tau(   2) = (   0.5001793   0.2567076   0.2567076  )
         3           Ge  tau(   3) = (   0.8335126   0.2567076   0.2567076  )
         4           Ge  tau(   4) = (   0.1668459   0.7699019   0.2567076  )
         5           Ge  tau(   5) = (   0.5001793   0.7699019   0.2567076  )
         6           Ge  tau(   6) = (   0.8335126   0.7699019   0.2567076  )
         7           Ge  tau(   7) = (   0.1668459   1.2830962   0.2567076  )
         8           Ge  tau(   8) = (   0.5001793   1.2830962   0.2567076  )
         9           Ge  tau(   9) = (   0.8335126   1.2830962   0.2567076  )
        10           Ge  tau(  10) = (   0.1668459   0.2567076   0.7699019  )
        11           Ge  tau(  11) = (   0.5001793   0.2567076   0.7699019  )
        12           Ge  tau(  12) = (   0.8335126   0.2567076   0.7699019  )
        13           Ge  tau(  13) = (   0.1668459   0.7699019   0.7699019  )
        14           Ge  tau(  14) = (   0.5001793   0.7699019   0.7699019  )
        15           Ge  tau(  15) = (   0.8335126   0.7699019   0.7699019  )
        16           Ge  tau(  16) = (   0.1668459   1.2830962   0.7699019  )
        17           Ge  tau(  17) = (   0.5001793   1.2830962   0.7699019  )
        18           Ge  tau(  18) = (   0.8335126   1.2830962   0.7699019  )
        19           Ge  tau(  19) = (   0.1668459   0.2567076   1.2830962  )
        20           Ge  tau(  20) = (   0.5001793   0.2567076   1.2830962  )
        21           Ge  tau(  21) = (   0.8335126   0.2567076   1.2830962  )
        22           Ge  tau(  22) = (   0.1668459   0.7699019   1.2830962  )
        23           Ge  tau(  23) = (   0.5001793   0.7699019   1.2830962  )
        24           Ge  tau(  24) = (   0.8335126   0.7699019   1.2830962  )
        25           Ge  tau(  25) = (   0.1668459   1.2830962   1.2830962  )
        26           Ge  tau(  26) = (   0.5001793   1.2830962   1.2830962  )
        27           Ge  tau(  27) = (   0.8335126   1.2830962   1.2830962  )
        28           Ge  tau(  28) = (   0.0002011   0.0001111   0.0001111  )
        29           Ge  tau(  29) = (   0.3335344   0.0001111   0.0001111  )
        30           Ge  tau(  30) = (   0.6668677   0.0001111   0.0001111  )
        31           Ge  tau(  31) = (   0.0002011   0.5133054   0.0001111  )
        32           Ge  tau(  32) = (   0.3335344   0.5133054   0.0001111  )
        33           Ge  tau(  33) = (   0.6668677   0.5133054   0.0001111  )
        34           Ge  tau(  34) = (   0.0002011   1.0264997   0.0001111  )
        35           Ge  tau(  35) = (   0.3335344   1.0264997   0.0001111  )
        36           Ge  tau(  36) = (   0.6668677   1.0264997   0.0001111  )
        37           Ge  tau(  37) = (   0.0002011   0.0001111   0.5133054  )
        38           Ge  tau(  38) = (   0.3335344   0.0001111   0.5133054  )
        39           Ge  tau(  39) = (   0.6668677   0.0001111   0.5133054  )
        40           Ge  tau(  40) = (   0.0002011   0.5133054   0.5133054  )
        41           Ge  tau(  41) = (   0.3335344   0.5133054   0.5133054  )
        42           Ge  tau(  42) = (   0.6668677   0.5133054   0.5133054  )
        43           Ge  tau(  43) = (   0.0002011   1.0264997   0.5133054  )
        44           Ge  tau(  44) = (   0.3335344   1.0264997   0.5133054  )
        45           Ge  tau(  45) = (   0.6668677   1.0264997   0.5133054  )
        46           Ge  tau(  46) = (   0.0002011   0.0001111   1.0264997  )
        47           Ge  tau(  47) = (   0.3335344   0.0001111   1.0264997  )
        48           Ge  tau(  48) = (   0.6668677   0.0001111   1.0264997  )
        49           Ge  tau(  49) = (   0.0002011   0.5133054   1.0264997  )
        50           Ge  tau(  50) = (   0.3335344   0.5133054   1.0264997  )
        51           Ge  tau(  51) = (   0.6668677   0.5133054   1.0264997  )
        52           Ge  tau(  52) = (   0.0002011   1.0264997   1.0264997  )
        53           Ge  tau(  53) = (   0.3335344   1.0264997   1.0264997  )
        54           Ge  tau(  54) = (   0.6668677   1.0264997   1.0264997  )
        55           O   tau(  55) = (   0.0001875   0.3558055   0.3558055  )
        56           O   tau(  56) = (   0.3335209   0.3558055   0.3558055  )
        57           O   tau(  57) = (   0.6668542   0.3558055   0.3558055  )
        58           O   tau(  58) = (   0.0001875   0.8689998   0.3558055  )
        59           O   tau(  59) = (   0.3335209   0.8689998   0.3558055  )
        60           O   tau(  60) = (   0.6668542   0.8689998   0.3558055  )
[...]
       148           O   tau( 148) = (   0.1668565   0.6124165   0.9274215  )
       149           O   tau( 149) = (   0.5001898   0.6124165   0.9274215  )
       150           O   tau( 150) = (   0.8335231   0.6124165   0.9274215  )
       151           O   tau( 151) = (   0.1668565   1.1256108   0.9274215  )
       152           O   tau( 152) = (   0.5001898   1.1256108   0.9274215  )
       153           O   tau( 153) = (   0.8335231   1.1256108   0.9274215  )
       154           O   tau( 154) = (   0.1668565   0.0992221   1.4406159  )
       155           O   tau( 155) = (   0.5001898   0.0992221   1.4406159  )
       156           O   tau( 156) = (   0.8335231   0.0992221   1.4406159  )
       157           O   tau( 157) = (   0.1668565   0.6124165   1.4406159  )
       158           O   tau( 158) = (   0.5001898   0.6124165   1.4406159  )
       159           O   tau( 159) = (   0.8335231   0.6124165   1.4406159  )
       160           O   tau( 160) = (   0.1668565   1.1256108   1.4406159  )
       161           O   tau( 161) = (   0.5001898   1.1256108   1.4406159  )
       162           O   tau( 162) = (   0.8335231   1.1256108   1.4406159  )

     number of k points=     6
                       cart. coord. in units 2pi/alat
        k(    1) = (   0.0000000   0.0000000   0.0000000), wk =   0.1666667
        k(    2) = (   0.0000000   0.0000000  -0.3247633), wk =   0.3333333
        k(    3) = (   0.0000000  -0.3247633  -0.3247633), wk =   0.1666667
        k(    4) = (   0.3333333   0.0000000   0.0000000), wk =   0.3333333
        k(    5) = (   0.3333333   0.0000000  -0.3247633), wk =   0.6666667
        k(    6) = (   0.3333333  -0.3247633  -0.3247633), wk =   0.3333333

     Check: negative core charge=   -0.000052

     Initial potential from superposition of free atoms

     starting charge 1403.95515, renormalised to 1404.00000
     Starting wfcs are  918 randomized atomic wfcs

     Self-consistent Calculation

     iteration #  1     ecut=    60.00 Ry     beta= 0.70
     Davidson diagonalization with overlap
     ethr =  1.00E-02,  avg # of iterations =  2.0

     total energy              =  -13210.92608362 Ry
     estimated scf accuracy    <      34.04893830 Ry

[...]

     total energy              =  -13225.90725743 Ry
     estimated scf accuracy    <       0.00000003 Ry

     iteration # 13     ecut=    60.00 Ry     beta= 0.70
     Davidson diagonalization with overlap
     ethr =  1.92E-12,  avg # of iterations =  4.2

     End of self-consistent calculation

          k = 0.0000 0.0000 0.0000 ( 83133 PWs)   bands (ev):

   -14.2936 -14.2520 -14.2520 -14.2520 -14.2520 -14.2348 -14.2348 -14.2348
   -14.2348 -14.2190 -14.2190 -14.2190 -14.2190 -14.2190 -14.2190 -14.2190
   -14.2190 -14.2170 -14.2170 -14.2170 -14.2170 -14.2170 -14.2170 -14.2170
   -14.2170 -14.2116 -14.2116 -14.2116 -14.2116 -14.2116 -14.2116 -14.2116
   -14.2115 -14.1885 -14.1884 -14.1884 -14.1884 -14.1833 -14.1833 -14.1832
   -14.1832 -14.1832 -14.1832 -14.1832 -14.1832 -14.1817 -14.1817 -14.1817
   -14.1817 -14.1624 -14.1624 -14.1624 -14.1624 -14.1206 -14.1193 -14.1193
   -14.0653 -14.0653 -14.0653 -14.0653 -14.0652 -14.0652 -14.0652 -14.0652
   -14.0408 -14.0408 -14.0408 -14.0408 -14.0407 -14.0407 -14.0407 -14.0407
   -14.0144 -14.0144 -14.0144 -14.0144 -14.0144 -14.0144 -14.0144 -14.0144
   -13.9916 -13.9916 -13.9913 -13.9913 -13.9913 -13.9913 -13.9913 -13.9913
[...]
   -13.9846 -13.9846 -13.9846 -13.9832 -13.9831 -13.9809 -13.9809 -13.9809
   -13.9809 -13.9805 -13.9805 -13.9805 -13.9805 -13.9628 -13.9628 -13.9628
   -13.9627 -13.9574 -13.9574 -13.9574 -13.9573 -13.9356 -13.9356 -13.9356
   -13.9356 -13.9356 -13.9356 -13.9356 -13.9356 -13.9356 -13.9356 -13.9356
   -13.9356 -13.9355 -13.9355 -13.9355 -13.9355 -13.9355 -13.9355 -13.9355
   -13.9354 -13.9354 -13.9354 -13.9354 -13.9354 -13.9350 -13.9350 -13.9350
   -13.9350 -13.9349 -13.9349 -13.9349 -13.9349 -13.9341 -13.9341 -13.9341
   -13.9341 -13.9285 -13.9285 -13.9273 -13.9193 -13.9193 -13.9193 -13.9193
   -13.9192 -13.9192 -13.9192 -13.9192 -13.9156 -13.9156 -13.9142 -13.9142
   -13.9142 -13.9142 -13.9142 -13.9142 -13.9142 -13.9142 -13.9138 -13.9138
   -13.9138 -13.9138 -13.9138 -13.9138 -13.9138 -13.9138 -13.9131 -13.9131
   -13.9131 -13.9131 -13.9131 -13.9131 -13.9131 -13.9131 -13.9128 -13.9054
   -13.9054 -13.9033 -13.9033 -13.9033 -13.9033 -13.9020 -13.9020 -13.9020
   -13.9020 -13.8957 -13.8956 -13.8956 -13.8956 -13.8952 -13.8952 -13.8952
   -13.8952 -13.8952 -13.8952 -13.8952 -13.8952 -13.8947 -13.8947 -13.8947
   -13.8947 -13.8942 -13.8942 -13.8942 -13.8941 -13.8920 -13.8920 -13.8920
   -13.8920 -13.8919 -13.8919 -13.8919 -13.8919 -13.8910 -13.8910 -13.8910
   -13.8910 -13.8910 -13.8910 -13.8910 -13.8910 -13.8895 -13.8895 -13.8895
   -13.8895 -13.8857 -13.8857 -13.8857 -13.8857 -13.8857 -13.8857 -13.8857
   -13.8857 -13.8854 -13.8854 -13.8854 -13.8854 -13.8854 -13.8854 -13.8854
   -13.8854 -13.8854 -13.8854 -13.8849 -13.8849 -13.8836 -10.2581  -9.7875
    -9.7875  -9.7875  -9.7875  -9.3398  -9.3398  -9.3398  -9.3398  -9.1866
    -9.1866  -8.8126  -8.8126  -8.8126  -8.8126  -8.8125  -8.8125  -8.8125
    -8.8125  -8.5476  -8.5476  -8.5476  -8.5476  -8.4891  -8.4891  -8.4891
    -8.4891  -8.4891  -8.4891  -8.4891  -8.4891  -8.4723  -8.4723  -8.4723
    -8.4723  -7.9420  -7.9420  -7.9420  -7.9420  -7.9419  -7.9419  -7.9419
    -7.9419  -7.8854  -7.8854  -7.8854  -7.8854  -7.8854  -7.8854  -7.8854
    -7.8854  -7.5836  -7.5836  -7.5835  -7.5835  -7.4328  -7.4328  -7.1656
    -7.1656  -7.1051  -7.1051  -7.1051  -7.1051  -6.9704  -6.9704  -6.9704
    -6.9704  -6.7951  -6.7951  -6.7951  -6.7951  -6.7950  -6.7950  -6.7950
    -6.7950  -6.7333  -6.6771  -6.6771  -6.6770  -6.6770  -6.5950  -6.5950
    -6.5950  -6.5950  -6.5950  -6.5950  -6.5950  -6.5950  -6.5858  -6.5858
    -6.5858  -6.5858  -6.5743  -6.5743  -6.5743  -6.5743  -6.5743  -6.5743
    -6.5743  -6.5743  -6.5008  -6.5008  -6.5008  -6.5008  -6.5008  -6.5008
    -6.5008  -6.5008   0.4405   0.4863   0.4863   1.2377   1.2377   1.2377
     1.2377   1.2377   1.2377   1.2377   1.2377   1.2953   1.2953   1.2953
     1.2953   1.3133   1.3133   1.3133   1.3133   1.3133   1.3133   1.3133
     1.3133   1.8148   1.8148   1.8148   1.8148   1.8148   1.8149   1.8149
     1.8149   2.2368   2.2368   2.2368   2.2368   2.8213   2.8213   2.8213
     2.8213   2.8213   2.8213   2.8213   2.8213   3.3706   3.3706   3.4064
     3.4064   3.4064   3.4064   3.6832   3.6832   3.6833   3.6833   3.8370
     3.8370   3.8370   3.8370   3.8370   3.8370   3.8370   3.8370   4.1557
     4.1557   4.1557   4.1557   4.1557   4.1557   4.1557   4.1557   4.6120
     4.6120   4.6120   4.6120   4.6120   4.6120   4.6120   4.6120   4.9218
     4.9218   4.9218   4.9218   4.9219   4.9219   4.9219   4.9219   4.9273
     4.9273   5.0091   5.0091   5.0091   5.0091   5.0092   5.0092   5.0092
     5.0092   5.2210   5.2210   5.4192   5.4192   5.4192   5.4192   5.5943
[...]
     8.0947   8.0947   8.0947   8.1642   8.1642   8.1642   8.1642   8.3036
     8.3036   8.3036   8.3036   8.4457   8.4457   8.4458   8.4458   8.4878
     8.4878   8.4878   8.4878   8.4878   8.4878   8.4878   8.4878   8.5171
     8.5172   8.6113   8.6113   8.6113   8.6113   8.6262   8.6262   8.6263
     8.6263   8.6510   8.6510   8.6510   8.6510   8.6510   8.6511   8.6511
     8.6511   8.7164   8.7164   8.7164   8.7164   8.9323   8.9323   8.9323
     8.9323   8.9323   8.9323   8.9324   8.9324   9.0450   9.0450   9.0450
     9.0450   9.0450   9.0450   9.0450   9.0450   9.1443   9.1443   9.1443
     9.1443   9.1540   9.1540   9.1540   9.1540   9.1540   9.1540   9.1540
     9.1540   9.2562   9.2562   9.2562   9.2562   9.2563   9.2563   9.2563
     9.2563   9.2858   9.2858   9.2858   9.2858   9.4637   9.4637   9.5302
     9.5302   9.5303   9.5303   9.5404   9.5404   9.5404   9.5404   9.5404
     9.5404   9.5404   9.5404   9.5844   9.5844   9.5844   9.5844   9.5844
     9.5844   9.5844   9.5844   9.6811   9.6811   9.6811   9.6811   9.7106
     9.7106   9.9198   9.9198   9.9198   9.9198  10.4931

[...]

          k = 0.3333-0.3248-0.3248 ( 83032 PWs)   bands (ev):

   -14.2666 -14.2666 -14.2665 -14.2665 -14.2665 -14.2665 -14.2665 -14.2665
   -14.2625 -14.2625 -14.2625 -14.2624 -14.2487 -14.2486 -14.2486 -14.2486
   -14.2419 -14.2418 -14.2325 -14.2325 -14.2324 -14.2324 -14.1941 -14.1941
   -14.1941 -14.1940 -14.1868 -14.1867 -14.1819 -14.1819 -14.1819 -14.1819
   -14.1819 -14.1819 -14.1818 -14.1818 -14.1573 -14.1573 -14.1573 -14.1573
   -14.1573 -14.1573 -14.1573 -14.1572 -14.1200 -14.1199 -14.1164 -14.1163
   -14.1163 -14.1162 -14.1041 -14.1041 -14.1041 -14.1040 -14.0973 -14.0973
   -14.0972 -14.0972 -14.0933 -14.0933 -14.0543 -14.0543 -14.0543 -14.0543
   -14.0542 -14.0542 -14.0542 -14.0542 -14.0364 -14.0364 -14.0352 -14.0351
   -14.0351 -14.0351 -14.0293 -14.0292 -14.0292 -14.0292 -14.0192 -14.0192
   -14.0192 -14.0192 -14.0183 -14.0183 -14.0182 -14.0182 -14.0171 -14.0171
   -14.0167 -14.0167 -14.0167 -14.0167 -14.0167 -14.0167 -14.0166 -14.0166
   -13.9927 -13.9927 -13.9926 -13.9926 -13.9926 -13.9926 -13.9926 -13.9926
   -13.9890 -13.9889 -13.9889 -13.9889 -13.9749 -13.9749 -13.9748 -13.9748
   -13.9660 -13.9660 -13.9588 -13.9588 -13.9587 -13.9587 -13.9587 -13.9587
   -13.9587 -13.9587 -13.9557 -13.9556 -13.9556 -13.9556 -13.9487 -13.9486
   -13.9459 -13.9459 -13.9447 -13.9447 -13.9447 -13.9447 -13.9447 -13.9447
   -13.9446 -13.9446 -13.9442 -13.9442 -13.9442 -13.9442 -13.9442 -13.9441
   -13.9441 -13.9441 -13.9424 -13.9424 -13.9424 -13.9424 -13.9411 -13.9411
   -13.9411 -13.9411 -13.9385 -13.9384 -13.9384 -13.9384 -13.9343 -13.9343
   -13.9343 -13.9342 -13.9192 -13.9192 -13.9192 -13.9191 -13.9146 -13.9146
   -13.9145 -13.9145 -13.9145 -13.9145 -13.9145 -13.9145 -13.9123 -13.9122
   -13.9115 -13.9114 -13.9114 -13.9114 -13.9096 -13.9096 -13.9096 -13.9095
   -13.9015 -13.9015 -13.9014 -13.9014 -13.9007 -13.9007 -13.9007 -13.9006
   -13.8997 -13.8996 -13.8996 -13.8996 -13.8996 -13.8996 -13.8996 -13.8995
   -13.8995 -13.8995 -13.8995 -13.8995 -13.8990 -13.8989 -13.8965 -13.8965
   -13.8959 -13.8959 -13.8958 -13.8958 -13.8928 -13.8928 -13.8928 -13.8928
   -13.8928 -13.8928 -13.8928 -13.8928 -13.8928 -13.8927 -13.8927 -13.8927
   -13.8914 -13.8914 -13.8914 -13.8913 -13.8913 -13.8913 -13.8912 -13.8912
   -13.8912 -13.8911 -13.8904 -13.8904 -13.8904 -13.8903 -13.8895 -13.8894
   -13.8884 -13.8884 -13.8884 -13.8884 -13.8884 -13.8883 -13.8883 -13.8883
   -13.8880 -13.8880 -13.8880 -13.8880 -13.8880 -13.8880 -13.8879 -13.8879
   -13.8854 -13.8854 -13.8854 -13.8854 -13.8854 -13.8853 -13.8846 -13.8846
   -13.8846 -13.8846 -13.8846 -13.8846 -13.8845 -13.8845  -9.8981  -9.8980
    -9.8980  -9.8979  -9.5448  -9.5447  -9.5447  -9.5446  -9.0245  -9.0245
    -9.0245  -9.0244  -9.0244  -9.0244  -9.0243  -9.0243  -8.7266  -8.7266
    -8.7265  -8.7265  -8.7265  -8.7265  -8.7264  -8.7264  -8.5880  -8.5880
    -8.3733  -8.3732  -8.3445  -8.3444  -8.3444  -8.3443  -8.0000  -8.0000
    -7.9999  -7.9999  -7.9999  -7.9999  -7.9999  -7.9999  -7.8815  -7.8814
    -7.8482  -7.8482  -7.8481  -7.8481  -7.7723  -7.7722  -7.7722  -7.7722
    -7.6496  -7.6496  -7.6496  -7.6495  -7.5147  -7.5146  -7.3702  -7.3702
    -7.3701  -7.3701  -7.2060  -7.2060  -7.0734  -7.0734  -7.0734  -7.0734
    -6.9066  -6.9066  -6.9065  -6.9065  -6.9065  -6.9065  -6.9064  -6.9064
    -6.7377  -6.7377  -6.7377  -6.7376  -6.7376  -6.7376  -6.7375  -6.7375
    -6.5741  -6.5740  -6.5360  -6.5359  -6.5359  -6.5359  -6.5206  -6.5206
    -6.5205  -6.5205  -6.5205  -6.5205  -6.5204  -6.5204  -6.5121  -6.5121
    -6.5121  -6.5120  -6.4703  -6.4703  -6.4702  -6.4702  -6.4690  -6.4690
    -6.4690  -6.4690   0.6182   0.6183   0.8860   0.8861   0.8861   0.8861
     0.9029   0.9030   0.9030   0.9030   1.0153   1.0153   1.0153   1.0154
     1.3366   1.3366   1.3366   1.3366   1.3367   1.3367   1.3367   1.3367
     1.9831   1.9831   1.9831   1.9832   2.2639   2.2640   2.3396   2.3397
     2.3397   2.3397   2.3397   2.3397   2.3398   2.3398   2.5054   2.5054
     2.5054   2.5054   2.5054   2.5054   2.5055   2.5055   3.1435   3.1436
     3.8620   3.8620   3.8620   3.8620   4.0359   4.0359   4.0359   4.0359
     4.0727   4.0727   4.0727   4.0727   4.0727   4.0727   4.0728   4.0728
     4.0910   4.0911   4.2676   4.2676   4.2676   4.2676   4.5664   4.5664
     4.5664   4.5664   4.5666   4.5666   4.5666   4.5666   4.7119   4.7119
     4.7120   4.7120   4.7851   4.7851   4.7852   4.7852   4.8035   4.8036
     4.8036   4.8036   5.0718   5.0718   5.0719   5.0719   5.0719   5.0719
     5.0720   5.0720   5.3763   5.3763   5.3763   5.3763   5.4986   5.4986
[...]
     8.0390   8.0390   8.1099   8.1099   8.1100   8.1100   8.1100   8.1100
     8.1100   8.1100   8.1444   8.1444   8.1445   8.1445   8.2147   8.2147
     8.2148   8.2148   8.3053   8.3053   8.3053   8.3054   8.5096   8.5096
     8.5097   8.5097   8.5097   8.5098   8.5098   8.5098   8.5185   8.5185
     8.5185   8.5185   8.5187   8.5187   8.5188   8.5188   8.7250   8.7250
     8.7251   8.7251   8.8004   8.8004   8.8004   8.8004   8.9321   8.9321
     8.9322   8.9322   8.9322   8.9322   8.9322   8.9322   9.0026   9.0026
     9.0549   9.0549   9.0550   9.0550   9.0869   9.0870   9.0870   9.0870
     9.1094   9.1095   9.2022   9.2023   9.2040   9.2041   9.2439   9.2439
     9.2439   9.2439   9.2594   9.2594   9.2595   9.2595   9.2595   9.2595
     9.2595   9.2595   9.2934   9.2935   9.3769   9.3769   9.4453   9.4454
     9.4454   9.4454   9.5174   9.5174   9.5175   9.5175   9.5175   9.5175
     9.5175   9.5175   9.5781   9.5781   9.5781   9.5781   9.5878   9.5878
     9.5878   9.5878   9.5879   9.5879   9.5879   9.5879   9.9747   9.9747
     9.9747   9.9748  10.1644  10.1645  10.1645  10.1645

     highest occupied level (ev):    10.4931

!    total energy              =  -13225.90725743 Ry
     estimated scf accuracy    <          5.5E-09 Ry

     The total energy is the sum of the following terms:
     one-electron contribution =   -4400.32380511 Ry
     hartree contribution      =    3316.27340706 Ry
     xc contribution           =   -3278.83845017 Ry
     ewald contribution        =   -8863.01840921 Ry

     convergence has been achieved in  13 iterations

     Forces acting on atoms (cartesian axes, Ry/au):

     atom    1 type  1   force =     0.00004422   -0.00000538   -0.00000538
     atom    2 type  1   force =     0.00004250   -0.00000863   -0.00000863
     atom    3 type  1   force =     0.00003408   -0.00000948   -0.00000948
     atom    4 type  1   force =     0.00004115    0.00000972   -0.00000090
     atom    5 type  1   force =     0.00004195    0.00001000   -0.00000352
     atom    6 type  1   force =     0.00003803    0.00001357    0.00000133
     atom    7 type  1   force =     0.00003912    0.00004650   -0.00000395
     atom    8 type  1   force =     0.00004454    0.00004430   -0.00000342
     atom    9 type  1   force =     0.00003629    0.00004367   -0.00000264
     atom   10 type  1   force =     0.00004115   -0.00000090    0.00000972
     atom   11 type  1   force =     0.00004195   -0.00000352    0.00001000
     atom   12 type  1   force =     0.00003803    0.00000133    0.00001357
     atom   13 type  1   force =     0.00003585    0.00001866    0.00001866
     atom   14 type  1   force =     0.00004141    0.00002101    0.00002101
     atom   15 type  1   force =     0.00004479    0.00002067    0.00002067
     atom   16 type  1   force =     0.00003786    0.00003116    0.00002177
     atom   17 type  1   force =     0.00003964    0.00003156    0.00002114
     atom   18 type  1   force =     0.00004257    0.00002776    0.00001722
     atom   19 type  1   force =     0.00003912   -0.00000395    0.00004650
     atom   20 type  1   force =     0.00004454   -0.00000342    0.00004430
     atom   21 type  1   force =     0.00003629   -0.00000264    0.00004367
     atom   22 type  1   force =     0.00003786    0.00002177    0.00003116
     atom   23 type  1   force =     0.00003964    0.00002114    0.00003156
     atom   24 type  1   force =     0.00004257    0.00001722    0.00002776
     atom   25 type  1   force =     0.00004172    0.00003746    0.00003746
     atom   26 type  1   force =     0.00003783    0.00003806    0.00003806
     atom   27 type  1   force =     0.00004080    0.00003877    0.00003877
     atom   28 type  1   force =    -0.00005970    0.00001959    0.00001959
     atom   29 type  1   force =    -0.00005290    0.00001984    0.00001984
     atom   30 type  1   force =    -0.00005577    0.00002087    0.00002087
     atom   31 type  1   force =    -0.00005911   -0.00002531    0.00001049
     atom   32 type  1   force =    -0.00005119   -0.00002453    0.00001636
     atom   33 type  1   force =    -0.00005911   -0.00002700    0.00001538
     atom   34 type  1   force =    -0.00005765    0.00003794    0.00001471
     atom   35 type  1   force =    -0.00005468    0.00003661    0.00001308
     atom   36 type  1   force =    -0.00005714    0.00003827    0.00001877
     atom   37 type  1   force =    -0.00005911    0.00001049   -0.00002531
     atom   38 type  1   force =    -0.00005119    0.00001636   -0.00002453
     atom   39 type  1   force =    -0.00005911    0.00001538   -0.00002700
     atom   40 type  1   force =    -0.00005845   -0.00001303   -0.00001303
     atom   41 type  1   force =    -0.00005664   -0.00001530   -0.00001530
     atom   42 type  1   force =    -0.00005579   -0.00001629   -0.00001629
     atom   43 type  1   force =    -0.00006261    0.00003811   -0.00000903
     atom   44 type  1   force =    -0.00005585    0.00004047   -0.00001047
     atom   45 type  1   force =    -0.00005294    0.00004140   -0.00001423
     atom   46 type  1   force =    -0.00005765    0.00001471    0.00003794
     atom   47 type  1   force =    -0.00005468    0.00001308    0.00003661
     atom   48 type  1   force =    -0.00005714    0.00001877    0.00003827
     atom   49 type  1   force =    -0.00006261   -0.00000903    0.00003811
     atom   50 type  1   force =    -0.00005585   -0.00001047    0.00004047
     atom   51 type  1   force =    -0.00005294   -0.00001423    0.00004140
     atom   52 type  1   force =    -0.00005869    0.00002628    0.00002628
     atom   53 type  1   force =    -0.00005772    0.00003012    0.00003012
     atom   54 type  1   force =    -0.00005557    0.00002606    0.00002606
     atom   55 type  2   force =    -0.00000566   -0.00097989   -0.00097989
     atom   56 type  2   force =    -0.00000568   -0.00097958   -0.00097958
     atom   57 type  2   force =    -0.00000532   -0.00097935   -0.00097935
     atom   58 type  2   force =    -0.00000796   -0.00090777   -0.00096469
     atom   59 type  2   force =    -0.00000839   -0.00090757   -0.00096464
     atom   60 type  2   force =    -0.00000882   -0.00090771   -0.00096420
[...]
     atom  148 type  2   force =     0.00001799   -0.00104530    0.00098995
     atom  149 type  2   force =     0.00001730   -0.00104494    0.00098964
     atom  150 type  2   force =     0.00001684   -0.00104485    0.00098923
     atom  151 type  2   force =     0.00001798   -0.00077724    0.00097441
     atom  152 type  2   force =     0.00001784   -0.00077708    0.00097426
     atom  153 type  2   force =     0.00001790   -0.00077691    0.00097447
     atom  154 type  2   force =     0.00001284   -0.00081817    0.00078554
     atom  155 type  2   force =     0.00001261   -0.00081828    0.00078489
     atom  156 type  2   force =     0.00001328   -0.00081831    0.00078498
     atom  157 type  2   force =     0.00001505   -0.00104892    0.00080588
     atom  158 type  2   force =     0.00001523   -0.00104833    0.00080536
     atom  159 type  2   force =     0.00001486   -0.00104869    0.00080575
     atom  160 type  2   force =     0.00001567   -0.00077420    0.00077820
     atom  161 type  2   force =     0.00001599   -0.00077415    0.00077780
     atom  162 type  2   force =     0.00001565   -0.00077422    0.00077783

     Total force =     0.012652     Total SCF correction =     0.000275

     General routines

     Parallel routines

   This run was terminated on:  17:53:22  19May2025

   JOB DONE.