     Program PWSCF v.6.8 starts on 19May2025 at 17:36:17

     R & G space division:  proc/nbgrp/npool/nimage =      56

     Reading input from supercell-010.in

     Current dimensions of program PWSCF are:
     Max number of different atomic species (ntypx) = 10
     Max number of k-points (npk) =  40000
     Max angular momentum in pseudopotentials (lmaxx) =  4

     Using Slab Decomposition

     bravais-lattice index     =            0
     lattice parameter (alat)  =      16.4683  a.u.
     unit-cell volume          =   10586.5407 (a.u.)^3
     number of atoms/cell      =          162
     number of atomic types    =            2
     number of electrons       =      1404.00
     number of Kohn-Sham states=          702
     kinetic-energy cutoff     =      60.0000  Ry
     charge density cutoff     =     240.0000  Ry
     scf convergence threshold =      1.0E-08
     mixing beta               =       0.7000
     number of iterations used =            8  plain     mixing
     Exchange-correlation= PBE
                           (   1   4   3   4   0   0   0)

     celldm(1)=  16.468320  celldm(2)=   0.000000  celldm(3)=   0.000000
     celldm(4)=   0.000000  celldm(5)=   0.000000  celldm(6)=   0.000000

     crystal axes: (cart. coord. in units of alat)
               a(1) = (   1.000000   0.000000   0.000000 )
               a(2) = (   0.000000   1.539583   0.000000 )
               a(3) = (   0.000000   0.000000   1.539583 )

     reciprocal axes: (cart. coord. in units 2 pi/alat)
               b(1) = (  1.000000  0.000000  0.000000 )
               b(2) = (  0.000000  0.649527  0.000000 )
               b(3) = (  0.000000  0.000000  0.649527 )

     PseudoPot. # 1 for Ge read from file:
     ./Ge.upf
     MD5 check sum: 087fa14d6c89b52166990835c3b338da
     Pseudo is Norm-conserving + core correction, Zval = 14.0
     Generated using ONCVPSP code by D. R. Hamann
     Using radial grid of 1560 points,  6 beta functions with:
                l(1) =   0
                l(2) =   0
                l(3) =   1
                l(4) =   1
                l(5) =   2
                l(6) =   2

     PseudoPot. # 2 for O  read from file:
     ./O.upf
     MD5 check sum: 9db02a5ece9d56b81b65a73f8163743d
     Pseudo is Norm-conserving + core correction, Zval =  6.0
     Generated using ONCVPSP code by D. R. Hamann
     Using radial grid of  936 points,  5 beta functions with:
                l(1) =   0
                l(2) =   0
                l(3) =   1
                l(4) =   1
                l(5) =   2

     atomic species   valence    mass     pseudopotential
        Ge            14.00    72.64000     Ge( 1.00)
        O              6.00    15.99940     O ( 1.00)

     No symmetry found

   Cartesian axes

     site n.     atom                  positions (alat units)
         1           Ge  tau(   1) = (   0.1668459   0.2567076   0.2567076  )
         2           Ge  tau(   2) = (   0.5001793   0.2567076   0.2567076  )
         3           Ge  tau(   3) = (   0.8335126   0.2567076   0.2567076  )
         4           Ge  tau(   4) = (   0.1668459   0.7699019   0.2567076  )
         5           Ge  tau(   5) = (   0.5001793   0.7699019   0.2567076  )
         6           Ge  tau(   6) = (   0.8335126   0.7699019   0.2567076  )
         7           Ge  tau(   7) = (   0.1668459   1.2830962   0.2567076  )
         8           Ge  tau(   8) = (   0.5001793   1.2830962   0.2567076  )
         9           Ge  tau(   9) = (   0.8335126   1.2830962   0.2567076  )
        10           Ge  tau(  10) = (   0.1668459   0.2567076   0.7699019  )
        11           Ge  tau(  11) = (   0.5001793   0.2567076   0.7699019  )
        12           Ge  tau(  12) = (   0.8335126   0.2567076   0.7699019  )
        13           Ge  tau(  13) = (   0.1668459   0.7699019   0.7699019  )
        14           Ge  tau(  14) = (   0.5001793   0.7699019   0.7699019  )
        15           Ge  tau(  15) = (   0.8335126   0.7699019   0.7699019  )
        16           Ge  tau(  16) = (   0.1668459   1.2830962   0.7699019  )
        17           Ge  tau(  17) = (   0.5001793   1.2830962   0.7699019  )
        18           Ge  tau(  18) = (   0.8335126   1.2830962   0.7699019  )
        19           Ge  tau(  19) = (   0.1668459   0.2567076   1.2830962  )
        20           Ge  tau(  20) = (   0.5001793   0.2567076   1.2830962  )
        21           Ge  tau(  21) = (   0.8335126   0.2567076   1.2830962  )
        22           Ge  tau(  22) = (   0.1668459   0.7699019   1.2830962  )
        23           Ge  tau(  23) = (   0.5001793   0.7699019   1.2830962  )
        24           Ge  tau(  24) = (   0.8335126   0.7699019   1.2830962  )
        25           Ge  tau(  25) = (   0.1668459   1.2830962   1.2830962  )
        26           Ge  tau(  26) = (   0.5001793   1.2830962   1.2830962  )
        27           Ge  tau(  27) = (   0.8335126   1.2830962   1.2830962  )
        28           Ge  tau(  28) = (   0.0002011   0.0001111   0.0001111  )
        29           Ge  tau(  29) = (   0.3335344   0.0001111   0.0001111  )
        30           Ge  tau(  30) = (   0.6668677   0.0001111   0.0001111  )
        31           Ge  tau(  31) = (   0.0002011   0.5133054   0.0001111  )
        32           Ge  tau(  32) = (   0.3335344   0.5133054   0.0001111  )
        33           Ge  tau(  33) = (   0.6668677   0.5133054   0.0001111  )
        34           Ge  tau(  34) = (   0.0002011   1.0264997   0.0001111  )
        35           Ge  tau(  35) = (   0.3335344   1.0264997   0.0001111  )
        36           Ge  tau(  36) = (   0.6668677   1.0264997   0.0001111  )
        37           Ge  tau(  37) = (   0.0002011   0.0001111   0.5133054  )
        38           Ge  tau(  38) = (   0.3335344   0.0001111   0.5133054  )
        39           Ge  tau(  39) = (   0.6668677   0.0001111   0.5133054  )
        40           Ge  tau(  40) = (   0.0002011   0.5133054   0.5133054  )
        41           Ge  tau(  41) = (   0.3335344   0.5133054   0.5133054  )
        42           Ge  tau(  42) = (   0.6668677   0.5133054   0.5133054  )
        43           Ge  tau(  43) = (   0.0002011   1.0264997   0.5133054  )
        44           Ge  tau(  44) = (   0.3335344   1.0264997   0.5133054  )
        45           Ge  tau(  45) = (   0.6668677   1.0264997   0.5133054  )
        46           Ge  tau(  46) = (   0.0002011   0.0001111   1.0264997  )
        47           Ge  tau(  47) = (   0.3335344   0.0001111   1.0264997  )
        48           Ge  tau(  48) = (   0.6668677   0.0001111   1.0264997  )
        49           Ge  tau(  49) = (   0.0002011   0.5133054   1.0264997  )
        50           Ge  tau(  50) = (   0.3335344   0.5133054   1.0264997  )
        51           Ge  tau(  51) = (   0.6668677   0.5133054   1.0264997  )
        52           Ge  tau(  52) = (   0.0002011   1.0264997   1.0264997  )
        53           Ge  tau(  53) = (   0.3335344   1.0264997   1.0264997  )
        54           Ge  tau(  54) = (   0.6668677   1.0264997   1.0264997  )
        55           O   tau(  55) = (   0.0001875   0.3545910   0.3558055  )
        56           O   tau(  56) = (   0.3335209   0.3558055   0.3558055  )
        57           O   tau(  57) = (   0.6668542   0.3558055   0.3558055  )
        58           O   tau(  58) = (   0.0001875   0.8689998   0.3558055  )
        59           O   tau(  59) = (   0.3335209   0.8689998   0.3558055  )
        60           O   tau(  60) = (   0.6668542   0.8689998   0.3558055  )
[...]
       148           O   tau( 148) = (   0.1668565   0.6124165   0.9274215  )
       149           O   tau( 149) = (   0.5001898   0.6124165   0.9274215  )
       150           O   tau( 150) = (   0.8335231   0.6124165   0.9274215  )
       151           O   tau( 151) = (   0.1668565   1.1256108   0.9274215  )
       152           O   tau( 152) = (   0.5001898   1.1256108   0.9274215  )
       153           O   tau( 153) = (   0.8335231   1.1256108   0.9274215  )
       154           O   tau( 154) = (   0.1668565   0.0992221   1.4406159  )
       155           O   tau( 155) = (   0.5001898   0.0992221   1.4406159  )
       156           O   tau( 156) = (   0.8335231   0.0992221   1.4406159  )
       157           O   tau( 157) = (   0.1668565   0.6124165   1.4406159  )
       158           O   tau( 158) = (   0.5001898   0.6124165   1.4406159  )
       159           O   tau( 159) = (   0.8335231   0.6124165   1.4406159  )
       160           O   tau( 160) = (   0.1668565   1.1256108   1.4406159  )
       161           O   tau( 161) = (   0.5001898   1.1256108   1.4406159  )
       162           O   tau( 162) = (   0.8335231   1.1256108   1.4406159  )

     number of k points=     8
                       cart. coord. in units 2pi/alat
        k(    1) = (   0.0000000   0.0000000   0.0000000), wk =   0.1666667
        k(    2) = (   0.0000000   0.0000000  -0.3247633), wk =   0.1666667
        k(    3) = (   0.0000000  -0.3247633  -0.3247633), wk =   0.1666667
        k(    4) = (   0.3333333   0.0000000   0.0000000), wk =   0.3333333
        k(    5) = (   0.3333333   0.0000000  -0.3247633), wk =   0.3333333
        k(    6) = (   0.3333333  -0.3247633  -0.3247633), wk =   0.3333333
        k(    7) = (   0.0000000  -0.3247633   0.0000000), wk =   0.1666667
        k(    8) = (  -0.3333333  -0.3247633   0.0000000), wk =   0.3333333

     Check: negative core charge=   -0.000052

     Initial potential from superposition of free atoms

     starting charge 1403.95515, renormalised to 1404.00000
     Starting wfcs are  918 randomized atomic wfcs

     Self-consistent Calculation

     iteration #  1     ecut=    60.00 Ry     beta= 0.70
     Davidson diagonalization with overlap
     ethr =  1.00E-02,  avg # of iterations =  2.0

     total energy              =  -13210.92755030 Ry
     estimated scf accuracy    <      34.04759433 Ry

[...]

     total energy              =  -13225.90721500 Ry
     estimated scf accuracy    <       0.00000002 Ry

     iteration # 14     ecut=    60.00 Ry     beta= 0.70
     Davidson diagonalization with overlap
     ethr =  1.43E-12,  avg # of iterations =  4.2

     End of self-consistent calculation

          k = 0.0000 0.0000 0.0000 ( 83133 PWs)   bands (ev):

   -14.2937 -14.2532 -14.2524 -14.2517 -14.2511 -14.2357 -14.2348 -14.2344
   -14.2340 -14.2224 -14.2200 -14.2195 -14.2193 -14.2193 -14.2190 -14.2189
   -14.2189 -14.2172 -14.2171 -14.2170 -14.2170 -14.2168 -14.2168 -14.2162
   -14.2160 -14.2120 -14.2117 -14.2115 -14.2113 -14.2112 -14.2111 -14.2108
   -14.2108 -14.1894 -14.1886 -14.1881 -14.1878 -14.1852 -14.1840 -14.1835
   -14.1834 -14.1829 -14.1828 -14.1827 -14.1823 -14.1815 -14.1814 -14.1811
   -14.1811 -14.1633 -14.1627 -14.1620 -14.1614 -14.1205 -14.1194 -14.1192
   -14.0663 -14.0659 -14.0657 -14.0654 -14.0650 -14.0650 -14.0647 -14.0641
   -14.0415 -14.0415 -14.0411 -14.0410 -14.0405 -14.0404 -14.0400 -14.0397
   -14.0153 -14.0149 -14.0147 -14.0146 -14.0141 -14.0141 -14.0138 -14.0135
   -13.9936 -13.9933 -13.9928 -13.9916 -13.9915 -13.9914 -13.9911 -13.9911
   -13.9909 -13.9907 -13.9906 -13.9902 -13.9894 -13.9894 -13.9883 -13.9876
[...]
   -13.9807 -13.9806 -13.9800 -13.9791 -13.9784 -13.9640 -13.9631 -13.9625
   -13.9620 -13.9579 -13.9575 -13.9568 -13.9560 -13.9430 -13.9390 -13.9385
   -13.9376 -13.9370 -13.9369 -13.9365 -13.9365 -13.9363 -13.9361 -13.9361
   -13.9360 -13.9358 -13.9357 -13.9357 -13.9357 -13.9356 -13.9355 -13.9352
   -13.9352 -13.9348 -13.9346 -13.9346 -13.9346 -13.9345 -13.9345 -13.9344
   -13.9342 -13.9338 -13.9335 -13.9333 -13.9329 -13.9327 -13.9324 -13.9312
   -13.9299 -13.9289 -13.9285 -13.9271 -13.9224 -13.9204 -13.9199 -13.9196
   -13.9193 -13.9192 -13.9189 -13.9188 -13.9170 -13.9165 -13.9156 -13.9154
   -13.9148 -13.9147 -13.9145 -13.9145 -13.9143 -13.9142 -13.9141 -13.9141
   -13.9139 -13.9139 -13.9134 -13.9134 -13.9134 -13.9132 -13.9131 -13.9126
   -13.9126 -13.9121 -13.9121 -13.9116 -13.9109 -13.9106 -13.9094 -13.9070
   -13.9056 -13.9047 -13.9039 -13.9038 -13.9031 -13.9024 -13.9024 -13.9021
   -13.9016 -13.8990 -13.8975 -13.8963 -13.8963 -13.8959 -13.8958 -13.8957
   -13.8956 -13.8955 -13.8952 -13.8950 -13.8949 -13.8948 -13.8946 -13.8945
   -13.8943 -13.8942 -13.8941 -13.8939 -13.8935 -13.8928 -13.8922 -13.8921
   -13.8920 -13.8917 -13.8917 -13.8916 -13.8913 -13.8911 -13.8909 -13.8909
   -13.8907 -13.8906 -13.8903 -13.8903 -13.8901 -13.8897 -13.8891 -13.8885
   -13.8883 -13.8877 -13.8874 -13.8868 -13.8865 -13.8861 -13.8860 -13.8858
   -13.8858 -13.8854 -13.8854 -13.8851 -13.8849 -13.8848 -13.8846 -13.8846
   -13.8841 -13.8839 -13.8834 -13.8831 -13.8815 -13.8813 -10.2581  -9.7884
    -9.7878  -9.7873  -9.7869  -9.3403  -9.3401  -9.3398  -9.3394  -9.1869
    -9.1867  -8.8139  -8.8136  -8.8129  -8.8128  -8.8126  -8.8123  -8.8121
    -8.8115  -8.5485  -8.5480  -8.5474  -8.5470  -8.4906  -8.4902  -8.4893
    -8.4890  -8.4890  -8.4889  -8.4887  -8.4884  -8.4735  -8.4726  -8.4722
    -8.4715  -7.9441  -7.9431  -7.9422  -7.9421  -7.9419  -7.9417  -7.9413
    -7.9412  -7.8871  -7.8863  -7.8856  -7.8856  -7.8851  -7.8851  -7.8848
    -7.8846  -7.5846  -7.5836  -7.5831  -7.5826  -7.4329  -7.4325  -7.1663
    -7.1657  -7.1057  -7.1050  -7.1049  -7.1046  -6.9713  -6.9707  -6.9701
    -6.9698  -6.7963  -6.7958  -6.7952  -6.7951  -6.7949  -6.7947  -6.7941
    -6.7932  -6.7338  -6.6772  -6.6772  -6.6771  -6.6762  -6.5959  -6.5956
    -6.5952  -6.5951  -6.5949  -6.5946  -6.5945  -6.5937  -6.5871  -6.5862
    -6.5855  -6.5848  -6.5751  -6.5746  -6.5743  -6.5742  -6.5741  -6.5740
    -6.5736  -6.5728  -6.5017  -6.5013  -6.5010  -6.5007  -6.5006  -6.5004
    -6.5000  -6.4994   0.4412   0.4860   0.4868   1.2366   1.2369   1.2372
     1.2375   1.2377   1.2379   1.2381   1.2391   1.2946   1.2951   1.2957
     1.2974   1.3117   1.3126   1.3129   1.3131   1.3132   1.3137   1.3138
     1.3156   1.8134   1.8141   1.8144   1.8148   1.8149   1.8151   1.8153
     1.8165   2.2361   2.2369   2.2372   2.2386   2.8192   2.8202   2.8207
     2.8211   2.8211   2.8217   2.8218   2.8223   3.3699   3.3705   3.4060
     3.4063   3.4067   3.4074   3.6826   3.6833   3.6838   3.6842   3.8358
     3.8363   3.8368   3.8369   3.8372   3.8373   3.8378   3.8381   4.1550
     4.1554   4.1554   4.1555   4.1560   4.1560   4.1564   4.1569   4.6108
     4.6115   4.6119   4.6119   4.6120   4.6121   4.6123   4.6127   4.9209
     4.9212   4.9214   4.9217   4.9219   4.9221   4.9223   4.9226   4.9272
     4.9273   5.0084   5.0086   5.0089   5.0091   5.0092   5.0094   5.0096
     5.0100   5.2208   5.2217   5.4183   5.4191   5.4195   5.4202   5.5932
[...]
     8.0950   8.0953   8.0962   8.1636   8.1640   8.1643   8.1647   8.3030
     8.3034   8.3041   8.3045   8.4447   8.4456   8.4460   8.4465   8.4872
     8.4873   8.4876   8.4877   8.4879   8.4881   8.4882   8.4896   8.5170
     8.5172   8.6104   8.6110   8.6115   8.6117   8.6254   8.6261   8.6264
     8.6269   8.6503   8.6507   8.6507   8.6511   8.6513   8.6514   8.6515
     8.6518   8.7154   8.7159   8.7166   8.7173   8.9307   8.9314   8.9318
     8.9321   8.9324   8.9324   8.9331   8.9333   9.0438   9.0444   9.0448
     9.0449   9.0451   9.0453   9.0456   9.0457   9.1439   9.1440   9.1442
     9.1445   9.1536   9.1536   9.1538   9.1540   9.1540   9.1544   9.1545
     9.1549   9.2553   9.2557   9.2560   9.2561   9.2564   9.2565   9.2566
     9.2573   9.2852   9.2856   9.2862   9.2865   9.4636   9.4637   9.5290
     9.5302   9.5306   9.5310   9.5390   9.5393   9.5401   9.5402   9.5406
     9.5407   9.5414   9.5415   9.5836   9.5837   9.5841   9.5843   9.5847
     9.5847   9.5849   9.5853   9.6804   9.6809   9.6812   9.6815   9.7106
     9.7108   9.9183   9.9194   9.9200   9.9212  10.4931

[...]

          k = 0.0000-0.3248 0.0000 ( 83134 PWs)   bands (ev):

[...]

          k =-0.3333-0.3248 0.0000 ( 83068 PWs)   bands (ev):

   -14.2757 -14.2746 -14.2730 -14.2727 -14.2723 -14.2719 -14.2595 -14.2573
   -14.2513 -14.2499 -14.2495 -14.2494 -14.2465 -14.2461 -14.2453 -14.2453
   -14.2449 -14.2434 -14.2419 -14.2400 -14.2235 -14.2229 -14.2211 -14.2208
   -14.1969 -14.1951 -14.1868 -14.1864 -14.1858 -14.1855 -14.1835 -14.1833
   -14.1812 -14.1811 -14.1794 -14.1790 -14.1652 -14.1651 -14.1458 -14.1452
   -14.1434 -14.1433 -14.1414 -14.1413 -14.1409 -14.1408 -14.1304 -14.1302
   -14.1286 -14.1283 -14.1115 -14.1098 -14.1060 -14.1040 -14.0882 -14.0863
   -14.0792 -14.0787 -14.0776 -14.0767 -14.0763 -14.0760 -14.0758 -14.0755
   -14.0479 -14.0478 -14.0362 -14.0361 -14.0345 -14.0342 -14.0333 -14.0313
   -14.0293 -14.0276 -14.0245 -14.0218 -14.0213 -14.0207 -14.0206 -14.0205
   -14.0200 -14.0196 -14.0196 -14.0193 -14.0192 -14.0185 -14.0182 -14.0181
   -14.0179 -14.0178 -14.0176 -14.0176 -14.0172 -14.0169 -14.0167 -14.0165
   -14.0164 -14.0154 -14.0148 -14.0147 -13.9994 -13.9975 -13.9851 -13.9850
   -13.9821 -13.9821 -13.9811 -13.9805 -13.9781 -13.9759 -13.9718 -13.9711
   -13.9695 -13.9691 -13.9642 -13.9639 -13.9634 -13.9630 -13.9602 -13.9599
   -13.9571 -13.9547 -13.9531 -13.9524 -13.9511 -13.9504 -13.9501 -13.9491
   -13.9488 -13.9486 -13.9484 -13.9480 -13.9476 -13.9471 -13.9467 -13.9465
   -13.9465 -13.9463 -13.9450 -13.9446 -13.9441 -13.9438 -13.9432 -13.9431
   -13.9428 -13.9426 -13.9424 -13.9421 -13.9419 -13.9413 -13.9404 -13.9400
   -13.9389 -13.9376 -13.9371 -13.9367 -13.9349 -13.9348 -13.9334 -13.9322
   -13.9316 -13.9305 -13.9212 -13.9187 -13.9174 -13.9172 -13.9170 -13.9165
   -13.9163 -13.9161 -13.9157 -13.9152 -13.9150 -13.9148 -13.9145 -13.9137
   -13.9135 -13.9121 -13.9118 -13.9114 -13.9106 -13.9102 -13.9083 -13.9082
   -13.9073 -13.9063 -13.9060 -13.9052 -13.9048 -13.9047 -13.9033 -13.9027
   -13.9022 -13.9019 -13.9016 -13.9012 -13.9008 -13.9004 -13.9001 -13.8999
   -13.8994 -13.8989 -13.8986 -13.8985 -13.8980 -13.8977 -13.8970 -13.8964
   -13.8962 -13.8960 -13.8956 -13.8949 -13.8945 -13.8944 -13.8942 -13.8937
   -13.8936 -13.8934 -13.8931 -13.8930 -13.8927 -13.8924 -13.8923 -13.8919
   -13.8918 -13.8915 -13.8914 -13.8911 -13.8909 -13.8907 -13.8905 -13.8902
   -13.8901 -13.8897 -13.8897 -13.8894 -13.8893 -13.8890 -13.8889 -13.8885
   -13.8884 -13.8883 -13.8881 -13.8880 -13.8880 -13.8878 -13.8877 -13.8876
   -13.8874 -13.8871 -13.8870 -13.8869 -13.8869 -13.8867 -13.8866 -13.8863
   -13.8862 -13.8861 -13.8857 -13.8857 -13.8854 -13.8854 -13.8848 -13.8844
   -13.8842 -13.8839 -13.8831 -13.8828 -13.8819 -13.8805 -10.0172 -10.0153
    -9.6575  -9.6555  -9.5559  -9.5556  -9.5540  -9.5536  -9.2226  -9.2223
    -9.2207  -9.2203  -9.1247  -9.1239  -8.8135  -8.8128  -8.7721  -8.7712
    -8.7709  -8.7707  -8.5160  -8.5151  -8.5149  -8.5145  -8.4025  -8.4005
    -8.3893  -8.3888  -8.3876  -8.3867  -8.1933  -8.1927  -8.1912  -8.1907
    -8.1436  -8.1431  -8.1419  -8.1410  -8.0371  -8.0367  -7.9233  -7.9229
    -7.9224  -7.9220  -7.8475  -7.8468  -7.8454  -7.8448  -7.7565  -7.7545
    -7.7441  -7.7422  -7.5160  -7.5146  -7.2764  -7.2761  -7.2757  -7.2754
    -7.2385  -7.2364  -7.2199  -7.2192  -7.2179  -7.2171  -7.0274  -7.0270
    -7.0267  -7.0263  -6.9699  -6.9692  -6.9680  -6.9672  -6.9655  -6.9634
    -6.7468  -6.7465  -6.6328  -6.6319  -6.6304  -6.6299  -6.6118  -6.6117
    -6.5926  -6.5916  -6.5858  -6.5841  -6.5551  -6.5545  -6.5541  -6.5534
    -6.5481  -6.5474  -6.5460  -6.5455  -6.5138  -6.5130  -6.5112  -6.5109
    -6.5059  -6.5053  -6.4966  -6.4959  -6.4943  -6.4936  -6.4613  -6.4591
    -6.4450  -6.4427   0.6507   0.6529   0.6605   0.6630   0.8179   0.8184
     0.8189   0.8195   1.0504   1.0505   1.0513   1.0518   1.0725   1.0745
     1.5125   1.5132   1.5147   1.5155   1.5683   1.5692   1.5706   1.5720
     1.7332   1.7335   1.7788   1.7795   1.7798   1.7804   1.9158   1.9177
     2.2762   2.2767   2.2771   2.2778   2.3166   2.3170   2.3955   2.3959
     2.9141   2.9143   2.9147   2.9157   3.1325   3.1331   3.1334   3.1340
     3.4981   3.4987   3.5000   3.5006   3.6176   3.6182   3.8328   3.8333
     3.8337   3.8342   4.1900   4.1902   4.1908   4.1909   4.2260   4.2263
     4.4532   4.4539   4.4540   4.4545   4.5340   4.5351   4.5875   4.5886
     4.5987   4.5993   4.6005   4.6014   4.6761   4.6768   4.6773   4.6774
     4.6788   4.6803   4.7876   4.7886   4.8175   4.8179   4.9789   4.9791
     4.9796   4.9799   5.0294   5.0301   5.0818   5.0821   5.1144   5.1146
     5.1322   5.1335   5.2433   5.2438   5.2769   5.2776   5.2788   5.2794
[...]
     8.0262   8.0284   8.0601   8.0615   8.1319   8.1337   8.1497   8.1502
     8.1505   8.1505   8.2196   8.2197   8.2202   8.2209   8.2792   8.2797
     8.3485   8.3489   8.3793   8.3801   8.3803   8.3813   8.4465   8.4471
     8.4477   8.4482   8.4642   8.4646   8.5502   8.5503   8.5516   8.5521
     8.7068   8.7071   8.7076   8.7077   8.7103   8.7108   8.7120   8.7126
     8.7498   8.7503   8.7516   8.7538   8.8673   8.8677   8.8686   8.8695
     8.8697   8.8699   8.8701   8.8705   8.9267   8.9269   8.9273   8.9275
     8.9421   8.9424   9.0114   9.0118   9.0123   9.0125   9.0426   9.0428
     9.0523   9.0526   9.0533   9.0536   9.2342   9.2343   9.2392   9.2397
     9.2410   9.2414   9.3155   9.3175   9.3449   9.3453   9.3455   9.3458
     9.3772   9.3782   9.3792   9.3794   9.3797   9.3813   9.3971   9.3977
     9.3979   9.3980   9.4530   9.4554   9.4774   9.4782   9.4857   9.4861
     9.4862   9.4865   9.4992   9.4999   9.5010   9.5014   9.6309   9.6319
     9.6567   9.6592   9.8241   9.8248   9.8264   9.8269   9.8799   9.8807
     9.8821   9.8828   9.9955   9.9979  10.2541  10.2566

     highest occupied level (ev):    10.4931

!    total energy              =  -13225.90721501 Ry
     estimated scf accuracy    <          1.2E-09 Ry

     The total energy is the sum of the following terms:
     one-electron contribution =   -4400.41938048 Ry
     hartree contribution      =    3316.32246846 Ry
     xc contribution           =   -3278.83978070 Ry
     ewald contribution        =   -8862.97052229 Ry

     convergence has been achieved in  14 iterations

     Forces acting on atoms (cartesian axes, Ry/au):

     atom    1 type  1   force =     0.00046565   -0.00132407   -0.00077148
     atom    2 type  1   force =     0.00003987   -0.00018450   -0.00006347
     atom    3 type  1   force =    -0.00038486   -0.00132345   -0.00077108
     atom    4 type  1   force =     0.00008070    0.00028439   -0.00025937
     atom    5 type  1   force =     0.00004004    0.00006754   -0.00007720
     atom    6 type  1   force =     0.00000025    0.00028510   -0.00025942
     atom    7 type  1   force =     0.00002510    0.00020917   -0.00004269
     atom    8 type  1   force =     0.00004025    0.00014231   -0.00000742
     atom    9 type  1   force =     0.00005417    0.00020822   -0.00004156
     atom   10 type  1   force =     0.00000987   -0.00026652    0.00010028
     atom   11 type  1   force =     0.00004035   -0.00012713    0.00001646
     atom   12 type  1   force =     0.00007066   -0.00026607    0.00010049
     atom   13 type  1   force =     0.00006245    0.00010086    0.00010514
     atom   14 type  1   force =     0.00004085    0.00008341    0.00007527
     atom   15 type  1   force =     0.00001887    0.00010107    0.00010551
     atom   16 type  1   force =     0.00002739    0.00012526   -0.00003570
     atom   17 type  1   force =     0.00004043    0.00008457    0.00000262
     atom   18 type  1   force =     0.00005335    0.00012494   -0.00003632
     atom   19 type  1   force =     0.00002944   -0.00011720    0.00013016
     atom   20 type  1   force =     0.00003991   -0.00007876    0.00008162
     atom   21 type  1   force =     0.00005030   -0.00011733    0.00013039
     atom   22 type  1   force =     0.00003966    0.00003167    0.00003777
     atom   23 type  1   force =     0.00003978    0.00003623    0.00003658
     atom   24 type  1   force =     0.00004168    0.00003134    0.00003725
     atom   25 type  1   force =     0.00003232    0.00009348    0.00006759
     atom   26 type  1   force =     0.00003975    0.00008571    0.00006136
     atom   27 type  1   force =     0.00004803    0.00009354    0.00006748
     atom   28 type  1   force =    -0.00005588    0.00046096    0.00047450
     atom   29 type  1   force =    -0.00014908    0.00003219    0.00005776
     atom   30 type  1   force =     0.00003643    0.00003284    0.00005733
     atom   31 type  1   force =    -0.00005696   -0.00016056   -0.00015120
     atom   32 type  1   force =    -0.00006167   -0.00009680   -0.00003871
     atom   33 type  1   force =    -0.00005120   -0.00009715   -0.00003848
     atom   34 type  1   force =    -0.00005650    0.00013137    0.00000788
     atom   35 type  1   force =    -0.00005309    0.00012064    0.00001015
     atom   36 type  1   force =    -0.00006012    0.00012059    0.00001131
     atom   37 type  1   force =    -0.00005682    0.00021817   -0.00029608
     atom   38 type  1   force =    -0.00030044    0.00007700   -0.00021584
     atom   39 type  1   force =     0.00018784    0.00007662   -0.00021573
     atom   40 type  1   force =    -0.00005698   -0.00092902   -0.00045277
     atom   41 type  1   force =     0.00024499   -0.00018474    0.00003591
     atom   42 type  1   force =    -0.00035913   -0.00018543    0.00003663
     atom   43 type  1   force =    -0.00005798    0.00018403    0.00001891
     atom   44 type  1   force =    -0.00005225    0.00016092    0.00000869
     atom   45 type  1   force =    -0.00006085    0.00016189    0.00000839
     atom   46 type  1   force =    -0.00005644    0.00000022    0.00005285
     atom   47 type  1   force =    -0.00005942    0.00000285    0.00005706
     atom   48 type  1   force =    -0.00005383    0.00000317    0.00005698
     atom   49 type  1   force =    -0.00005702   -0.00003758    0.00009243
     atom   50 type  1   force =    -0.00005779   -0.00003396    0.00008658
     atom   51 type  1   force =    -0.00005621   -0.00003413    0.00008624
     atom   52 type  1   force =    -0.00005692    0.00009427    0.00006376
     atom   53 type  1   force =    -0.00005756    0.00009031    0.00005990
     atom   54 type  1   force =    -0.00005649    0.00008987    0.00005945
     atom   55 type  2   force =    -0.00000730    0.00523578    0.00270895
     atom   56 type  2   force =    -0.00008836   -0.00080335   -0.00087469
     atom   57 type  2   force =     0.00007740   -0.00080336   -0.00087468
     atom   58 type  2   force =    -0.00000841   -0.00100573   -0.00097086
     atom   59 type  2   force =    -0.00006214   -0.00100034   -0.00095482
     atom   60 type  2   force =     0.00004529   -0.00100035   -0.00095491
[...]
     atom  148 type  2   force =     0.00001336   -0.00102288    0.00094689
     atom  149 type  2   force =     0.00001738   -0.00102070    0.00095157
     atom  150 type  2   force =     0.00002140   -0.00102289    0.00094690
     atom  151 type  2   force =     0.00001902   -0.00080338    0.00097955
     atom  152 type  2   force =     0.00001792   -0.00080257    0.00097852
     atom  153 type  2   force =     0.00001683   -0.00080337    0.00097959
     atom  154 type  2   force =     0.00011400   -0.00078920    0.00066150
     atom  155 type  2   force =     0.00001299   -0.00080285    0.00076001
     atom  156 type  2   force =    -0.00008818   -0.00078925    0.00066154
     atom  157 type  2   force =     0.00000916   -0.00102208    0.00081148
     atom  158 type  2   force =     0.00001509   -0.00103496    0.00082164
     atom  159 type  2   force =     0.00002080   -0.00102197    0.00081139
     atom  160 type  2   force =     0.00001784   -0.00081291    0.00079116
     atom  161 type  2   force =     0.00001585   -0.00080568    0.00079002
     atom  162 type  2   force =     0.00001360   -0.00081284    0.00079110

     Total force =     0.014453     Total SCF correction =     0.000061

     General routines

     Parallel routines

   This run was terminated on:  18: 0:30  19May2025

   JOB DONE.