     Program PWSCF v.6.8 starts on 19May2025 at 17:37:18

     R & G space division:  proc/nbgrp/npool/nimage =      56

     Reading input from supercell-020.in

     Current dimensions of program PWSCF are:
     Max number of different atomic species (ntypx) = 10
     Max number of k-points (npk) =  40000
     Max angular momentum in pseudopotentials (lmaxx) =  4

     Using Slab Decomposition

     bravais-lattice index     =            0
     lattice parameter (alat)  =      16.4683  a.u.
     unit-cell volume          =   10586.5407 (a.u.)^3
     number of atoms/cell      =          162
     number of atomic types    =            2
     number of electrons       =      1404.00
     number of Kohn-Sham states=          702
     kinetic-energy cutoff     =      60.0000  Ry
     charge density cutoff     =     240.0000  Ry
     scf convergence threshold =      1.0E-08
     mixing beta               =       0.7000
     number of iterations used =            8  plain     mixing
     Exchange-correlation= PBE
                           (   1   4   3   4   0   0   0)

     celldm(1)=  16.468320  celldm(2)=   0.000000  celldm(3)=   0.000000
     celldm(4)=   0.000000  celldm(5)=   0.000000  celldm(6)=   0.000000

     crystal axes: (cart. coord. in units of alat)
               a(1) = (   1.000000   0.000000   0.000000 )
               a(2) = (   0.000000   1.539583   0.000000 )
               a(3) = (   0.000000   0.000000   1.539583 )

     reciprocal axes: (cart. coord. in units 2 pi/alat)
               b(1) = (  1.000000  0.000000  0.000000 )
               b(2) = (  0.000000  0.649527  0.000000 )
               b(3) = (  0.000000  0.000000  0.649527 )

     PseudoPot. # 1 for Ge read from file:
     ./Ge.upf
     MD5 check sum: 087fa14d6c89b52166990835c3b338da
     Pseudo is Norm-conserving + core correction, Zval = 14.0
     Generated using ONCVPSP code by D. R. Hamann
     Using radial grid of 1560 points,  6 beta functions with:
                l(1) =   0
                l(2) =   0
                l(3) =   1
                l(4) =   1
                l(5) =   2
                l(6) =   2

     PseudoPot. # 2 for O  read from file:
     ./O.upf
     MD5 check sum: 9db02a5ece9d56b81b65a73f8163743d
     Pseudo is Norm-conserving + core correction, Zval =  6.0
     Generated using ONCVPSP code by D. R. Hamann
     Using radial grid of  936 points,  5 beta functions with:
                l(1) =   0
                l(2) =   0
                l(3) =   1
                l(4) =   1
                l(5) =   2

     atomic species   valence    mass     pseudopotential
        Ge            14.00    72.64000     Ge( 1.00)
        O              6.00    15.99940     O ( 1.00)

     No symmetry found

   Cartesian axes

     site n.     atom                  positions (alat units)
         1           Ge  tau(   1) = (   0.1668459   0.2567076   0.2567076  )
         2           Ge  tau(   2) = (   0.5001793   0.2567076   0.2567076  )
         3           Ge  tau(   3) = (   0.8335126   0.2567076   0.2567076  )
         4           Ge  tau(   4) = (   0.1668459   0.7699019   0.2567076  )
         5           Ge  tau(   5) = (   0.5001793   0.7699019   0.2567076  )
         6           Ge  tau(   6) = (   0.8335126   0.7699019   0.2567076  )
         7           Ge  tau(   7) = (   0.1668459   1.2830962   0.2567076  )
         8           Ge  tau(   8) = (   0.5001793   1.2830962   0.2567076  )
         9           Ge  tau(   9) = (   0.8335126   1.2830962   0.2567076  )
        10           Ge  tau(  10) = (   0.1668459   0.2567076   0.7699019  )
        11           Ge  tau(  11) = (   0.5001793   0.2567076   0.7699019  )
        12           Ge  tau(  12) = (   0.8335126   0.2567076   0.7699019  )
        13           Ge  tau(  13) = (   0.1668459   0.7699019   0.7699019  )
        14           Ge  tau(  14) = (   0.5001793   0.7699019   0.7699019  )
        15           Ge  tau(  15) = (   0.8335126   0.7699019   0.7699019  )
        16           Ge  tau(  16) = (   0.1668459   1.2830962   0.7699019  )
        17           Ge  tau(  17) = (   0.5001793   1.2830962   0.7699019  )
        18           Ge  tau(  18) = (   0.8335126   1.2830962   0.7699019  )
        19           Ge  tau(  19) = (   0.1668459   0.2567076   1.2830962  )
        20           Ge  tau(  20) = (   0.5001793   0.2567076   1.2830962  )
        21           Ge  tau(  21) = (   0.8335126   0.2567076   1.2830962  )
        22           Ge  tau(  22) = (   0.1668459   0.7699019   1.2830962  )
        23           Ge  tau(  23) = (   0.5001793   0.7699019   1.2830962  )
        24           Ge  tau(  24) = (   0.8335126   0.7699019   1.2830962  )
        25           Ge  tau(  25) = (   0.1668459   1.2830962   1.2830962  )
        26           Ge  tau(  26) = (   0.5001793   1.2830962   1.2830962  )
        27           Ge  tau(  27) = (   0.8335126   1.2830962   1.2830962  )
        28           Ge  tau(  28) = (   0.0002011   0.0001111   0.0001111  )
        29           Ge  tau(  29) = (   0.3335344   0.0001111   0.0001111  )
        30           Ge  tau(  30) = (   0.6668677   0.0001111   0.0001111  )
        31           Ge  tau(  31) = (   0.0002011   0.5133054   0.0001111  )
        32           Ge  tau(  32) = (   0.3335344   0.5133054   0.0001111  )
        33           Ge  tau(  33) = (   0.6668677   0.5133054   0.0001111  )
        34           Ge  tau(  34) = (   0.0002011   1.0264997   0.0001111  )
        35           Ge  tau(  35) = (   0.3335344   1.0264997   0.0001111  )
        36           Ge  tau(  36) = (   0.6668677   1.0264997   0.0001111  )
        37           Ge  tau(  37) = (   0.0002011   0.0001111   0.5133054  )
        38           Ge  tau(  38) = (   0.3335344   0.0001111   0.5133054  )
        39           Ge  tau(  39) = (   0.6668677   0.0001111   0.5133054  )
        40           Ge  tau(  40) = (   0.0002011   0.5133054   0.5133054  )
        41           Ge  tau(  41) = (   0.3335344   0.5133054   0.5133054  )
        42           Ge  tau(  42) = (   0.6668677   0.5133054   0.5133054  )
        43           Ge  tau(  43) = (   0.0002011   1.0264997   0.5133054  )
        44           Ge  tau(  44) = (   0.3335344   1.0264997   0.5133054  )
        45           Ge  tau(  45) = (   0.6668677   1.0264997   0.5133054  )
        46           Ge  tau(  46) = (   0.0002011   0.0001111   1.0264997  )
        47           Ge  tau(  47) = (   0.3335344   0.0001111   1.0264997  )
        48           Ge  tau(  48) = (   0.6668677   0.0001111   1.0264997  )
        49           Ge  tau(  49) = (   0.0002011   0.5133054   1.0264997  )
        50           Ge  tau(  50) = (   0.3335344   0.5133054   1.0264997  )
        51           Ge  tau(  51) = (   0.6668677   0.5133054   1.0264997  )
        52           Ge  tau(  52) = (   0.0002011   1.0264997   1.0264997  )
        53           Ge  tau(  53) = (   0.3335344   1.0264997   1.0264997  )
        54           Ge  tau(  54) = (   0.6668677   1.0264997   1.0264997  )
        55           O   tau(  55) = (   0.0001875   0.3558055   0.3558055  )
        56           O   tau(  56) = (   0.3335209   0.3558055   0.3558055  )
        57           O   tau(  57) = (   0.6668542   0.3558055   0.3558055  )
        58           O   tau(  58) = (   0.0001875   0.8689998   0.3558055  )
        59           O   tau(  59) = (   0.3335209   0.8689998   0.3558055  )
        60           O   tau(  60) = (   0.6668542   0.8689998   0.3558055  )
[...]
       148           O   tau( 148) = (   0.1668565   0.6124165   0.9274215  )
       149           O   tau( 149) = (   0.5001898   0.6124165   0.9274215  )
       150           O   tau( 150) = (   0.8335231   0.6124165   0.9274215  )
       151           O   tau( 151) = (   0.1668565   1.1256108   0.9274215  )
       152           O   tau( 152) = (   0.5001898   1.1256108   0.9274215  )
       153           O   tau( 153) = (   0.8335231   1.1256108   0.9274215  )
       154           O   tau( 154) = (   0.1668565   0.0992221   1.4406159  )
       155           O   tau( 155) = (   0.5001898   0.0992221   1.4406159  )
       156           O   tau( 156) = (   0.8335231   0.0992221   1.4406159  )
       157           O   tau( 157) = (   0.1668565   0.6124165   1.4406159  )
       158           O   tau( 158) = (   0.5001898   0.6124165   1.4406159  )
       159           O   tau( 159) = (   0.8335231   0.6124165   1.4406159  )
       160           O   tau( 160) = (   0.1668565   1.1256108   1.4406159  )
       161           O   tau( 161) = (   0.5001898   1.1256108   1.4406159  )
       162           O   tau( 162) = (   0.8335231   1.1256108   1.4406159  )

     number of k points=     8
                       cart. coord. in units 2pi/alat
        k(    1) = (   0.0000000   0.0000000   0.0000000), wk =   0.1666667
        k(    2) = (   0.0000000   0.0000000  -0.3247633), wk =   0.1666667
        k(    3) = (   0.0000000  -0.3247633  -0.3247633), wk =   0.1666667
        k(    4) = (   0.3333333   0.0000000   0.0000000), wk =   0.3333333
        k(    5) = (   0.3333333   0.0000000  -0.3247633), wk =   0.3333333
        k(    6) = (   0.3333333  -0.3247633  -0.3247633), wk =   0.3333333
        k(    7) = (   0.0000000  -0.3247633   0.0000000), wk =   0.1666667
        k(    8) = (  -0.3333333  -0.3247633   0.0000000), wk =   0.3333333

     Check: negative core charge=   -0.000052

     Initial potential from superposition of free atoms

     starting charge 1403.95515, renormalised to 1404.00000
     Starting wfcs are  918 randomized atomic wfcs

     Self-consistent Calculation

     iteration #  1     ecut=    60.00 Ry     beta= 0.70
     Davidson diagonalization with overlap
     ethr =  1.00E-02,  avg # of iterations =  2.0

     total energy              =  -13210.92880162 Ry
     estimated scf accuracy    <      34.04583639 Ry

[...]

     total energy              =  -13225.90718165 Ry
     estimated scf accuracy    <       0.00000002 Ry

     iteration # 14     ecut=    60.00 Ry     beta= 0.70
     Davidson diagonalization with overlap
     ethr =  1.75E-12,  avg # of iterations =  2.6

     End of self-consistent calculation

          k = 0.0000 0.0000 0.0000 ( 83133 PWs)   bands (ev):

   -14.2938 -14.2532 -14.2525 -14.2518 -14.2512 -14.2356 -14.2352 -14.2347
   -14.2338 -14.2204 -14.2203 -14.2201 -14.2195 -14.2194 -14.2193 -14.2192
   -14.2191 -14.2176 -14.2176 -14.2171 -14.2171 -14.2167 -14.2166 -14.2165
   -14.2161 -14.2120 -14.2118 -14.2118 -14.2117 -14.2117 -14.2114 -14.2110
   -14.2095 -14.1893 -14.1889 -14.1885 -14.1876 -14.1841 -14.1839 -14.1839
   -14.1835 -14.1832 -14.1831 -14.1831 -14.1830 -14.1817 -14.1816 -14.1812
   -14.1796 -14.1635 -14.1628 -14.1621 -14.1613 -14.1206 -14.1196 -14.1194
   -14.0666 -14.0659 -14.0657 -14.0657 -14.0653 -14.0651 -14.0648 -14.0646
   -14.0419 -14.0416 -14.0413 -14.0410 -14.0406 -14.0404 -14.0401 -14.0400
   -14.0154 -14.0152 -14.0148 -14.0148 -14.0144 -14.0142 -14.0141 -14.0136
   -13.9933 -13.9933 -13.9920 -13.9918 -13.9916 -13.9916 -13.9915 -13.9914
   -13.9911 -13.9910 -13.9909 -13.9905 -13.9899 -13.9892 -13.9882 -13.9880
[...]
   -13.9808 -13.9802 -13.9798 -13.9795 -13.9783 -13.9638 -13.9633 -13.9630
   -13.9621 -13.9583 -13.9577 -13.9569 -13.9558 -13.9410 -13.9396 -13.9383
   -13.9379 -13.9379 -13.9374 -13.9372 -13.9368 -13.9363 -13.9362 -13.9361
   -13.9361 -13.9361 -13.9361 -13.9360 -13.9358 -13.9355 -13.9355 -13.9352
   -13.9352 -13.9350 -13.9349 -13.9349 -13.9348 -13.9347 -13.9347 -13.9345
   -13.9342 -13.9342 -13.9341 -13.9337 -13.9336 -13.9330 -13.9322 -13.9321
   -13.9302 -13.9286 -13.9283 -13.9273 -13.9209 -13.9209 -13.9202 -13.9198
   -13.9195 -13.9194 -13.9192 -13.9190 -13.9169 -13.9168 -13.9156 -13.9155
   -13.9152 -13.9150 -13.9150 -13.9147 -13.9146 -13.9145 -13.9144 -13.9144
   -13.9141 -13.9141 -13.9137 -13.9137 -13.9134 -13.9133 -13.9132 -13.9130
   -13.9130 -13.9125 -13.9122 -13.9122 -13.9117 -13.9108 -13.9071 -13.9061
   -13.9061 -13.9047 -13.9040 -13.9034 -13.9033 -13.9028 -13.9028 -13.9024
   -13.9018 -13.8974 -13.8972 -13.8970 -13.8969 -13.8965 -13.8964 -13.8960
   -13.8960 -13.8955 -13.8953 -13.8952 -13.8951 -13.8950 -13.8949 -13.8948
   -13.8947 -13.8944 -13.8944 -13.8940 -13.8938 -13.8928 -13.8925 -13.8924
   -13.8924 -13.8922 -13.8920 -13.8916 -13.8914 -13.8914 -13.8913 -13.8910
   -13.8910 -13.8908 -13.8905 -13.8902 -13.8901 -13.8896 -13.8895 -13.8888
   -13.8880 -13.8877 -13.8875 -13.8871 -13.8869 -13.8863 -13.8861 -13.8859
   -13.8859 -13.8858 -13.8857 -13.8853 -13.8851 -13.8851 -13.8848 -13.8846
   -13.8844 -13.8843 -13.8840 -13.8833 -13.8826 -13.8781 -10.2580  -9.7881
    -9.7877  -9.7872  -9.7866  -9.3402  -9.3398  -9.3395  -9.3393  -9.1866
    -9.1864  -8.8136  -8.8130  -8.8128  -8.8125  -8.8123  -8.8122  -8.8116
    -8.8112  -8.5482  -8.5479  -8.5473  -8.5468  -8.4898  -8.4894  -8.4892
    -8.4891  -8.4891  -8.4889  -8.4879  -8.4878  -8.4730  -8.4724  -8.4720
    -8.4709  -7.9427  -7.9426  -7.9422  -7.9420  -7.9418  -7.9417  -7.9409
    -7.9399  -7.8861  -7.8859  -7.8856  -7.8856  -7.8851  -7.8851  -7.8843
    -7.8835  -7.5845  -7.5839  -7.5834  -7.5826  -7.4329  -7.4327  -7.1656
    -7.1650  -7.1056  -7.1052  -7.1051  -7.1044  -6.9710  -6.9707  -6.9701
    -6.9694  -6.7969  -6.7961  -6.7955  -6.7952  -6.7950  -6.7948  -6.7944
    -6.7939  -6.7329  -6.6779  -6.6770  -6.6770  -6.6770  -6.5964  -6.5956
    -6.5955  -6.5950  -6.5948  -6.5948  -6.5946  -6.5944  -6.5867  -6.5860
    -6.5853  -6.5842  -6.5755  -6.5749  -6.5744  -6.5744  -6.5743  -6.5742
    -6.5739  -6.5731  -6.5019  -6.5014  -6.5010  -6.5008  -6.5007  -6.5005
    -6.5002  -6.4996   0.4399   0.4859   0.4867   1.2360   1.2372   1.2374
     1.2376   1.2378   1.2381   1.2385   1.2388   1.2929   1.2948   1.2955
     1.2960   1.3115   1.3127   1.3129   1.3134   1.3135   1.3137   1.3140
     1.3148   1.8132   1.8144   1.8146   1.8148   1.8149   1.8153   1.8157
     1.8163   2.2351   2.2365   2.2368   2.2376   2.8203   2.8208   2.8209
     2.8215   2.8215   2.8219   2.8224   2.8233   3.3708   3.3714   3.4054
     3.4061   3.4065   3.4068   3.6823   3.6827   3.6833   3.6839   3.8359
     3.8362   3.8367   3.8368   3.8371   3.8372   3.8377   3.8381   4.1546
     4.1550   4.1554   4.1554   4.1559   4.1560   4.1560   4.1564   4.6113
     4.6117   4.6119   4.6120   4.6121   4.6121   4.6125   4.6132   4.9210
     4.9213   4.9217   4.9219   4.9221   4.9223   4.9225   4.9226   4.9274
     4.9274   5.0083   5.0088   5.0090   5.0091   5.0093   5.0094   5.0097
     5.0100   5.2203   5.2212   5.4182   5.4189   5.4193   5.4201   5.5937
[...]
     8.0948   8.0951   8.0952   8.1637   8.1642   8.1644   8.1648   8.3027
     8.3031   8.3038   8.3042   8.4449   8.4457   8.4460   8.4467   8.4862
     8.4875   8.4877   8.4878   8.4880   8.4882   8.4884   8.4884   8.5172
     8.5173   8.6108   8.6111   8.6116   8.6119   8.6257   8.6263   8.6265
     8.6273   8.6503   8.6506   8.6507   8.6509   8.6510   8.6514   8.6515
     8.6518   8.7157   8.7163   8.7170   8.7177   8.9314   8.9317   8.9322
     8.9322   8.9325   8.9329   8.9332   8.9340   9.0443   9.0445   9.0448
     9.0450   9.0452   9.0453   9.0457   9.0462   9.1440   9.1442   9.1442
     9.1444   9.1533   9.1537   9.1539   9.1540   9.1542   9.1545   9.1547
     9.1548   9.2553   9.2559   9.2561   9.2561   9.2565   9.2565   9.2569
     9.2572   9.2852   9.2856   9.2861   9.2865   9.4636   9.4637   9.5294
     9.5299   9.5303   9.5313   9.5393   9.5394   9.5401   9.5402   9.5406
     9.5407   9.5416   9.5417   9.5837   9.5841   9.5843   9.5843   9.5847
     9.5849   9.5854   9.5854   9.6806   9.6810   9.6814   9.6818   9.7106
     9.7108   9.9185   9.9197   9.9202   9.9214  10.4932

[...]

          k = 0.0000-0.3248 0.0000 ( 83134 PWs)   bands (ev):

[...]

          k =-0.3333-0.3248 0.0000 ( 83068 PWs)   bands (ev):

   -14.2751 -14.2749 -14.2735 -14.2731 -14.2725 -14.2716 -14.2596 -14.2574
   -14.2504 -14.2504 -14.2498 -14.2495 -14.2468 -14.2462 -14.2458 -14.2454
   -14.2450 -14.2433 -14.2418 -14.2397 -14.2233 -14.2232 -14.2214 -14.2208
   -14.1971 -14.1953 -14.1867 -14.1866 -14.1860 -14.1856 -14.1837 -14.1834
   -14.1814 -14.1811 -14.1794 -14.1793 -14.1653 -14.1653 -14.1456 -14.1455
   -14.1438 -14.1432 -14.1415 -14.1415 -14.1411 -14.1409 -14.1306 -14.1303
   -14.1286 -14.1285 -14.1115 -14.1099 -14.1061 -14.1041 -14.0882 -14.0864
   -14.0790 -14.0789 -14.0775 -14.0773 -14.0766 -14.0763 -14.0760 -14.0749
   -14.0480 -14.0479 -14.0365 -14.0360 -14.0346 -14.0343 -14.0334 -14.0316
   -14.0294 -14.0278 -14.0225 -14.0222 -14.0216 -14.0212 -14.0209 -14.0207
   -14.0202 -14.0200 -14.0198 -14.0195 -14.0195 -14.0189 -14.0183 -14.0183
   -14.0181 -14.0180 -14.0179 -14.0178 -14.0174 -14.0172 -14.0172 -14.0168
   -14.0165 -14.0162 -14.0155 -14.0123 -13.9996 -13.9976 -13.9854 -13.9851
   -13.9825 -13.9820 -13.9810 -13.9808 -13.9781 -13.9761 -13.9717 -13.9715
   -13.9699 -13.9691 -13.9643 -13.9642 -13.9636 -13.9630 -13.9604 -13.9600
   -13.9570 -13.9549 -13.9530 -13.9526 -13.9515 -13.9506 -13.9493 -13.9490
   -13.9488 -13.9488 -13.9486 -13.9483 -13.9479 -13.9475 -13.9471 -13.9470
   -13.9464 -13.9463 -13.9453 -13.9450 -13.9443 -13.9440 -13.9433 -13.9432
   -13.9430 -13.9429 -13.9427 -13.9424 -13.9421 -13.9415 -13.9409 -13.9404
   -13.9391 -13.9373 -13.9369 -13.9369 -13.9352 -13.9348 -13.9336 -13.9324
   -13.9317 -13.9304 -13.9201 -13.9192 -13.9183 -13.9178 -13.9171 -13.9166
   -13.9164 -13.9163 -13.9159 -13.9155 -13.9152 -13.9147 -13.9144 -13.9144
   -13.9137 -13.9123 -13.9122 -13.9119 -13.9108 -13.9093 -13.9083 -13.9076
   -13.9073 -13.9064 -13.9061 -13.9055 -13.9054 -13.9046 -13.9035 -13.9033
   -13.9025 -13.9019 -13.9017 -13.9014 -13.9009 -13.9006 -13.9004 -13.9000
   -13.8996 -13.8993 -13.8989 -13.8986 -13.8975 -13.8974 -13.8970 -13.8968
   -13.8962 -13.8958 -13.8954 -13.8949 -13.8947 -13.8945 -13.8944 -13.8941
   -13.8940 -13.8937 -13.8934 -13.8933 -13.8929 -13.8927 -13.8922 -13.8921
   -13.8920 -13.8918 -13.8915 -13.8913 -13.8910 -13.8910 -13.8909 -13.8905
   -13.8902 -13.8901 -13.8899 -13.8895 -13.8894 -13.8892 -13.8891 -13.8889
   -13.8888 -13.8885 -13.8885 -13.8884 -13.8883 -13.8879 -13.8879 -13.8877
   -13.8875 -13.8875 -13.8874 -13.8873 -13.8871 -13.8869 -13.8867 -13.8866
   -13.8865 -13.8863 -13.8860 -13.8856 -13.8855 -13.8850 -13.8849 -13.8845
   -13.8843 -13.8840 -13.8836 -13.8834 -13.8823 -13.8777 -10.0170 -10.0151
    -9.6573  -9.6553  -9.5557  -9.5554  -9.5537  -9.5535  -9.2224  -9.2220
    -9.2204  -9.2201  -9.1245  -9.1238  -8.8132  -8.8126  -8.7714  -8.7712
    -8.7710  -8.7700  -8.5153  -8.5150  -8.5148  -8.5139  -8.4021  -8.4001
    -8.3892  -8.3883  -8.3872  -8.3866  -8.1929  -8.1923  -8.1908  -8.1902
    -8.1435  -8.1426  -8.1414  -8.1409  -8.0367  -8.0363  -7.9228  -7.9224
    -7.9219  -7.9215  -7.8470  -7.8464  -7.8450  -7.8443  -7.7560  -7.7540
    -7.7441  -7.7421  -7.5158  -7.5144  -7.2764  -7.2761  -7.2757  -7.2756
    -7.2385  -7.2364  -7.2200  -7.2193  -7.2180  -7.2172  -7.0275  -7.0271
    -7.0268  -7.0266  -6.9701  -6.9693  -6.9681  -6.9675  -6.9656  -6.9635
    -6.7466  -6.7463  -6.6324  -6.6318  -6.6303  -6.6295  -6.6118  -6.6117
    -6.5923  -6.5913  -6.5853  -6.5835  -6.5555  -6.5548  -6.5542  -6.5540
    -6.5479  -6.5474  -6.5460  -6.5453  -6.5139  -6.5134  -6.5116  -6.5111
    -6.5062  -6.5057  -6.4968  -6.4964  -6.4947  -6.4939  -6.4616  -6.4595
    -6.4453  -6.4430   0.6500   0.6523   0.6595   0.6618   0.8181   0.8187
     0.8192   0.8197   1.0505   1.0510   1.0518   1.0519   1.0729   1.0749
     1.5119   1.5128   1.5142   1.5150   1.5673   1.5686   1.5700   1.5709
     1.7338   1.7342   1.7794   1.7799   1.7802   1.7809   1.9165   1.9184
     2.2759   2.2766   2.2770   2.2775   2.3159   2.3162   2.3951   2.3954
     2.9133   2.9142   2.9146   2.9148   3.1324   3.1330   3.1333   3.1339
     3.4979   3.4985   3.4998   3.5003   3.6172   3.6178   3.8326   3.8331
     3.8334   3.8340   4.1902   4.1904   4.1908   4.1912   4.2265   4.2268
     4.4532   4.4539   4.4540   4.4545   4.5339   4.5349   4.5878   4.5889
     4.5991   4.5999   4.6012   4.6018   4.6766   4.6768   4.6772   4.6780
     4.6781   4.6797   4.7879   4.7889   4.8176   4.8180   4.9789   4.9791
     4.9796   4.9799   5.0294   5.0301   5.0821   5.0824   5.1148   5.1149
     5.1326   5.1339   5.2434   5.2439   5.2770   5.2776   5.2788   5.2795
[...]
     8.0265   8.0287   8.0603   8.0616   8.1318   8.1335   8.1500   8.1501
     8.1504   8.1508   8.2192   8.2200   8.2204   8.2206   8.2793   8.2798
     8.3481   8.3485   8.3791   8.3800   8.3802   8.3811   8.4464   8.4469
     8.4474   8.4480   8.4644   8.4648   8.5504   8.5509   8.5522   8.5523
     8.7068   8.7070   8.7074   8.7077   8.7108   8.7111   8.7124   8.7131
     8.7498   8.7504   8.7519   8.7540   8.8678   8.8679   8.8693   8.8693
     8.8694   8.8700   8.8704   8.8706   8.9266   8.9269   8.9272   8.9275
     8.9422   8.9426   9.0118   9.0119   9.0124   9.0129   9.0425   9.0428
     9.0524   9.0526   9.0533   9.0538   9.2344   9.2345   9.2392   9.2397
     9.2408   9.2415   9.3155   9.3175   9.3452   9.3454   9.3455   9.3461
     9.3775   9.3782   9.3790   9.3791   9.3798   9.3814   9.3975   9.3976
     9.3978   9.3983   9.4531   9.4555   9.4779   9.4786   9.4859   9.4861
     9.4864   9.4867   9.4993   9.4997   9.5008   9.5016   9.6314   9.6325
     9.6569   9.6592   9.8243   9.8247   9.8264   9.8271   9.8800   9.8806
     9.8821   9.8829   9.9957   9.9980  10.2544  10.2568

     highest occupied level (ev):    10.4932

!    total energy              =  -13225.90718165 Ry
     estimated scf accuracy    <          2.6E-09 Ry

     The total energy is the sum of the following terms:
     one-electron contribution =   -4400.23375160 Ry
     hartree contribution      =    3316.22684444 Ry
     xc contribution           =   -3278.83631508 Ry
     ewald contribution        =   -8863.06395941 Ry

     convergence has been achieved in  14 iterations

     Forces acting on atoms (cartesian axes, Ry/au):

     atom    1 type  1   force =    -0.00034497   -0.00131317   -0.00074679
     atom    2 type  1   force =     0.00004007   -0.00018301   -0.00006329
     atom    3 type  1   force =     0.00042398   -0.00131251   -0.00074640
     atom    4 type  1   force =     0.00005376    0.00017891   -0.00003486
     atom    5 type  1   force =     0.00004029    0.00011462   -0.00000075
     atom    6 type  1   force =     0.00002680    0.00017989   -0.00003443
     atom    7 type  1   force =    -0.00000038    0.00031374   -0.00026967
     atom    8 type  1   force =     0.00004049    0.00009486   -0.00008593
     atom    9 type  1   force =     0.00007988    0.00031318   -0.00026920
     atom   10 type  1   force =     0.00005103   -0.00011093    0.00010185
     atom   11 type  1   force =     0.00004061   -0.00007182    0.00005383
     atom   12 type  1   force =     0.00002918   -0.00011021    0.00010216
     atom   13 type  1   force =     0.00004809    0.00007149    0.00004370
     atom   14 type  1   force =     0.00004081    0.00006299    0.00003886
     atom   15 type  1   force =     0.00003329    0.00007159    0.00004376
     atom   16 type  1   force =     0.00004135    0.00004437    0.00002597
     atom   17 type  1   force =     0.00004041    0.00004951    0.00002492
     atom   18 type  1   force =     0.00003932    0.00004392    0.00002536
     atom   19 type  1   force =     0.00007063   -0.00027518    0.00012990
     atom   20 type  1   force =     0.00004002   -0.00013540    0.00004609
     atom   21 type  1   force =     0.00000898   -0.00027522    0.00012992
     atom   22 type  1   force =     0.00005288    0.00011251   -0.00002226
     atom   23 type  1   force =     0.00003980    0.00007103    0.00001600
     atom   24 type  1   force =     0.00002828    0.00011220   -0.00002267
     atom   25 type  1   force =     0.00001863    0.00012343    0.00012905
     atom   26 type  1   force =     0.00003990    0.00010644    0.00009780
     atom   27 type  1   force =     0.00006151    0.00012329    0.00012894
     atom   28 type  1   force =    -0.00005558   -0.00095183   -0.00049844
     atom   29 type  1   force =    -0.00036009   -0.00016505    0.00005679
     atom   30 type  1   force =     0.00024739   -0.00016454    0.00005677
     atom   31 type  1   force =    -0.00005680    0.00019091   -0.00026810
     atom   32 type  1   force =     0.00018728    0.00004751   -0.00018715
     atom   33 type  1   force =    -0.00030021    0.00004716   -0.00018698
     atom   34 type  1   force =    -0.00005643    0.00018784    0.00004690
     atom   35 type  1   force =    -0.00006111    0.00016410    0.00003640
     atom   36 type  1   force =    -0.00005215    0.00016421    0.00003737
     atom   37 type  1   force =    -0.00005663   -0.00013545   -0.00017698
     atom   38 type  1   force =    -0.00004927   -0.00006990   -0.00006544
     atom   39 type  1   force =    -0.00006356   -0.00007026   -0.00006537
     atom   40 type  1   force =    -0.00005706    0.00043862    0.00045101
     atom   41 type  1   force =     0.00003473    0.00000956    0.00003455
     atom   42 type  1   force =    -0.00014855    0.00000918    0.00003533
     atom   43 type  1   force =    -0.00005791    0.00012603   -0.00001891
     atom   44 type  1   force =    -0.00006005    0.00011522   -0.00001699
     atom   45 type  1   force =    -0.00005306    0.00011598   -0.00001759
     atom   46 type  1   force =    -0.00005630   -0.00001058    0.00009635
     atom   47 type  1   force =    -0.00005559   -0.00000715    0.00009014
     atom   48 type  1   force =    -0.00005781   -0.00000672    0.00009021
     atom   49 type  1   force =    -0.00005695   -0.00002762    0.00004965
     atom   50 type  1   force =    -0.00005366   -0.00002536    0.00005390
     atom   51 type  1   force =    -0.00006053   -0.00002534    0.00005350
     atom   52 type  1   force =    -0.00005682    0.00009361    0.00006455
     atom   53 type  1   force =    -0.00005706    0.00009021    0.00006054
     atom   54 type  1   force =    -0.00005701    0.00008970    0.00006022
     atom   55 type  2   force =    -0.00000559   -0.00228926   -0.00248477
     atom   56 type  2   force =    -0.00009622   -0.00092348   -0.00096623
     atom   57 type  2   force =     0.00008514   -0.00092348   -0.00096626
     atom   58 type  2   force =    -0.00000836   -0.00097551   -0.00098990
     atom   59 type  2   force =    -0.00001840   -0.00097414   -0.00098597
     atom   60 type  2   force =     0.00000146   -0.00097427   -0.00098606
[...]
     atom  148 type  2   force =     0.00001354   -0.00104332    0.00097818
     atom  149 type  2   force =     0.00001732   -0.00103969    0.00097891
     atom  150 type  2   force =     0.00002128   -0.00104332    0.00097822
     atom  151 type  2   force =     0.00001737   -0.00079169    0.00096916
     atom  152 type  2   force =     0.00001790   -0.00079287    0.00097021
     atom  153 type  2   force =     0.00001850   -0.00079167    0.00096915
     atom  154 type  2   force =     0.00023280   -0.00066513    0.00048672
     atom  155 type  2   force =     0.00001294   -0.00076860    0.00077532
     atom  156 type  2   force =    -0.00020695   -0.00066519    0.00048678
     atom  157 type  2   force =     0.00001520   -0.00115047    0.00093028
     atom  158 type  2   force =     0.00001509   -0.00105719    0.00083187
     atom  159 type  2   force =     0.00001481   -0.00115038    0.00093024
     atom  160 type  2   force =     0.00002132   -0.00083637    0.00078770
     atom  161 type  2   force =     0.00001585   -0.00082539    0.00079173
     atom  162 type  2   force =     0.00001011   -0.00083636    0.00078765

     Total force =     0.015575     Total SCF correction =     0.000063

     General routines

     Parallel routines

   This run was terminated on:  18: 1: 4  19May2025

   JOB DONE.