     Program PWSCF v.6.8 starts on 19May2025 at 17:36:17

     R & G space division:  proc/nbgrp/npool/nimage =      56

     Reading input from supercell-007.in

     Current dimensions of program PWSCF are:
     Max number of different atomic species (ntypx) = 10
     Max number of k-points (npk) =  40000
     Max angular momentum in pseudopotentials (lmaxx) =  4
     Message from routine setup:
     using ibrav=0 with symmetry is DISCOURAGED, use correct ibrav instead

     Using Slab Decomposition

     bravais-lattice index     =            0
     lattice parameter (alat)  =      16.4683  a.u.
     unit-cell volume          =   10586.5407 (a.u.)^3
     number of atoms/cell      =          162
     number of atomic types    =            2
     number of electrons       =      1404.00
     number of Kohn-Sham states=          702
     kinetic-energy cutoff     =      60.0000  Ry
     charge density cutoff     =     240.0000  Ry
     scf convergence threshold =      1.0E-08
     mixing beta               =       0.7000
     number of iterations used =            8  plain     mixing
     Exchange-correlation= PBE
                           (   1   4   3   4   0   0   0)

     celldm(1)=  16.468320  celldm(2)=   0.000000  celldm(3)=   0.000000
     celldm(4)=   0.000000  celldm(5)=   0.000000  celldm(6)=   0.000000

     crystal axes: (cart. coord. in units of alat)
               a(1) = (   1.000000   0.000000   0.000000 )
               a(2) = (   0.000000   1.539583   0.000000 )
               a(3) = (   0.000000   0.000000   1.539583 )

     reciprocal axes: (cart. coord. in units 2 pi/alat)
               b(1) = (  1.000000  0.000000  0.000000 )
               b(2) = (  0.000000  0.649527  0.000000 )
               b(3) = (  0.000000  0.000000  0.649527 )

     PseudoPot. # 1 for Ge read from file:
     ./Ge.upf
     MD5 check sum: 087fa14d6c89b52166990835c3b338da
     Pseudo is Norm-conserving + core correction, Zval = 14.0
     Generated using ONCVPSP code by D. R. Hamann
     Using radial grid of 1560 points,  6 beta functions with:
                l(1) =   0
                l(2) =   0
                l(3) =   1
                l(4) =   1
                l(5) =   2
                l(6) =   2

     PseudoPot. # 2 for O  read from file:
     ./O.upf
     MD5 check sum: 9db02a5ece9d56b81b65a73f8163743d
     Pseudo is Norm-conserving + core correction, Zval =  6.0
     Generated using ONCVPSP code by D. R. Hamann
     Using radial grid of  936 points,  5 beta functions with:
                l(1) =   0
                l(2) =   0
                l(3) =   1
                l(4) =   1
                l(5) =   2

     atomic species   valence    mass     pseudopotential
        Ge            14.00    72.64000     Ge( 1.00)
        O              6.00    15.99940     O ( 1.00)

      2 Sym. Ops. (no inversion) found

   Cartesian axes

     site n.     atom                  positions (alat units)
         1           Ge  tau(   1) = (   0.1668459   0.2567076   0.2567076  )
         2           Ge  tau(   2) = (   0.5001793   0.2567076   0.2567076  )
         3           Ge  tau(   3) = (   0.8335126   0.2567076   0.2567076  )
         4           Ge  tau(   4) = (   0.1668459   0.7699019   0.2567076  )
         5           Ge  tau(   5) = (   0.5001793   0.7699019   0.2567076  )
         6           Ge  tau(   6) = (   0.8335126   0.7699019   0.2567076  )
         7           Ge  tau(   7) = (   0.1668459   1.2830962   0.2567076  )
         8           Ge  tau(   8) = (   0.5001793   1.2830962   0.2567076  )
         9           Ge  tau(   9) = (   0.8335126   1.2830962   0.2567076  )
        10           Ge  tau(  10) = (   0.1668459   0.2567076   0.7699019  )
        11           Ge  tau(  11) = (   0.5001793   0.2567076   0.7699019  )
        12           Ge  tau(  12) = (   0.8335126   0.2567076   0.7699019  )
        13           Ge  tau(  13) = (   0.1668459   0.7699019   0.7699019  )
        14           Ge  tau(  14) = (   0.5001793   0.7699019   0.7699019  )
        15           Ge  tau(  15) = (   0.8335126   0.7699019   0.7699019  )
        16           Ge  tau(  16) = (   0.1668459   1.2830962   0.7699019  )
        17           Ge  tau(  17) = (   0.5001793   1.2830962   0.7699019  )
        18           Ge  tau(  18) = (   0.8335126   1.2830962   0.7699019  )
        19           Ge  tau(  19) = (   0.1668459   0.2567076   1.2830962  )
        20           Ge  tau(  20) = (   0.5001793   0.2567076   1.2830962  )
        21           Ge  tau(  21) = (   0.8335126   0.2567076   1.2830962  )
        22           Ge  tau(  22) = (   0.1668459   0.7699019   1.2830962  )
        23           Ge  tau(  23) = (   0.5001793   0.7699019   1.2830962  )
        24           Ge  tau(  24) = (   0.8335126   0.7699019   1.2830962  )
        25           Ge  tau(  25) = (   0.1668459   1.2830962   1.2830962  )
        26           Ge  tau(  26) = (   0.5001793   1.2830962   1.2830962  )
        27           Ge  tau(  27) = (   0.8335126   1.2830962   1.2830962  )
        28           Ge  tau(  28) = (   0.0014155   0.0001111   0.0001111  )
        29           Ge  tau(  29) = (   0.3335344   0.0001111   0.0001111  )
        30           Ge  tau(  30) = (   0.6668677   0.0001111   0.0001111  )
        31           Ge  tau(  31) = (   0.0002011   0.5133054   0.0001111  )
        32           Ge  tau(  32) = (   0.3335344   0.5133054   0.0001111  )
        33           Ge  tau(  33) = (   0.6668677   0.5133054   0.0001111  )
        34           Ge  tau(  34) = (   0.0002011   1.0264997   0.0001111  )
        35           Ge  tau(  35) = (   0.3335344   1.0264997   0.0001111  )
        36           Ge  tau(  36) = (   0.6668677   1.0264997   0.0001111  )
        37           Ge  tau(  37) = (   0.0002011   0.0001111   0.5133054  )
        38           Ge  tau(  38) = (   0.3335344   0.0001111   0.5133054  )
        39           Ge  tau(  39) = (   0.6668677   0.0001111   0.5133054  )
        40           Ge  tau(  40) = (   0.0002011   0.5133054   0.5133054  )
        41           Ge  tau(  41) = (   0.3335344   0.5133054   0.5133054  )
        42           Ge  tau(  42) = (   0.6668677   0.5133054   0.5133054  )
        43           Ge  tau(  43) = (   0.0002011   1.0264997   0.5133054  )
        44           Ge  tau(  44) = (   0.3335344   1.0264997   0.5133054  )
        45           Ge  tau(  45) = (   0.6668677   1.0264997   0.5133054  )
        46           Ge  tau(  46) = (   0.0002011   0.0001111   1.0264997  )
        47           Ge  tau(  47) = (   0.3335344   0.0001111   1.0264997  )
        48           Ge  tau(  48) = (   0.6668677   0.0001111   1.0264997  )
        49           Ge  tau(  49) = (   0.0002011   0.5133054   1.0264997  )
        50           Ge  tau(  50) = (   0.3335344   0.5133054   1.0264997  )
        51           Ge  tau(  51) = (   0.6668677   0.5133054   1.0264997  )
        52           Ge  tau(  52) = (   0.0002011   1.0264997   1.0264997  )
        53           Ge  tau(  53) = (   0.3335344   1.0264997   1.0264997  )
        54           Ge  tau(  54) = (   0.6668677   1.0264997   1.0264997  )
        55           O   tau(  55) = (   0.0001875   0.3558055   0.3558055  )
        56           O   tau(  56) = (   0.3335209   0.3558055   0.3558055  )
        57           O   tau(  57) = (   0.6668542   0.3558055   0.3558055  )
        58           O   tau(  58) = (   0.0001875   0.8689998   0.3558055  )
        59           O   tau(  59) = (   0.3335209   0.8689998   0.3558055  )
        60           O   tau(  60) = (   0.6668542   0.8689998   0.3558055  )
[...]
       148           O   tau( 148) = (   0.1668565   0.6124165   0.9274215  )
       149           O   tau( 149) = (   0.5001898   0.6124165   0.9274215  )
       150           O   tau( 150) = (   0.8335231   0.6124165   0.9274215  )
       151           O   tau( 151) = (   0.1668565   1.1256108   0.9274215  )
       152           O   tau( 152) = (   0.5001898   1.1256108   0.9274215  )
       153           O   tau( 153) = (   0.8335231   1.1256108   0.9274215  )
       154           O   tau( 154) = (   0.1668565   0.0992221   1.4406159  )
       155           O   tau( 155) = (   0.5001898   0.0992221   1.4406159  )
       156           O   tau( 156) = (   0.8335231   0.0992221   1.4406159  )
       157           O   tau( 157) = (   0.1668565   0.6124165   1.4406159  )
       158           O   tau( 158) = (   0.5001898   0.6124165   1.4406159  )
       159           O   tau( 159) = (   0.8335231   0.6124165   1.4406159  )
       160           O   tau( 160) = (   0.1668565   1.1256108   1.4406159  )
       161           O   tau( 161) = (   0.5001898   1.1256108   1.4406159  )
       162           O   tau( 162) = (   0.8335231   1.1256108   1.4406159  )

     number of k points=     6
                       cart. coord. in units 2pi/alat
        k(    1) = (   0.0000000   0.0000000   0.0000000), wk =   0.1666667
        k(    2) = (   0.0000000   0.0000000  -0.3247633), wk =   0.3333333
        k(    3) = (   0.0000000  -0.3247633  -0.3247633), wk =   0.1666667
        k(    4) = (   0.3333333   0.0000000   0.0000000), wk =   0.3333333
        k(    5) = (   0.3333333   0.0000000  -0.3247633), wk =   0.6666667
        k(    6) = (   0.3333333  -0.3247633  -0.3247633), wk =   0.3333333

     Check: negative core charge=   -0.000052

     Initial potential from superposition of free atoms

     starting charge 1403.95515, renormalised to 1404.00000
     Starting wfcs are  918 randomized atomic wfcs

     Self-consistent Calculation

     iteration #  1     ecut=    60.00 Ry     beta= 0.70
     Davidson diagonalization with overlap
     ethr =  1.00E-02,  avg # of iterations =  2.0

     total energy              =  -13210.92697513 Ry
     estimated scf accuracy    <      34.04797696 Ry

[...]

     total energy              =  -13225.90712816 Ry
     estimated scf accuracy    <       0.00000004 Ry

     iteration # 13     ecut=    60.00 Ry     beta= 0.70
     Davidson diagonalization with overlap
     ethr =  2.99E-12,  avg # of iterations =  4.5

     End of self-consistent calculation

          k = 0.0000 0.0000 0.0000 ( 83133 PWs)   bands (ev):

   -14.2937 -14.2524 -14.2522 -14.2521 -14.2521 -14.2353 -14.2350 -14.2349
   -14.2348 -14.2248 -14.2202 -14.2197 -14.2194 -14.2190 -14.2188 -14.2183
   -14.2183 -14.2182 -14.2181 -14.2175 -14.2174 -14.2167 -14.2165 -14.2156
   -14.2150 -14.2130 -14.2125 -14.2118 -14.2118 -14.2113 -14.2112 -14.2105
   -14.2081 -14.1887 -14.1885 -14.1885 -14.1885 -14.1862 -14.1845 -14.1840
   -14.1836 -14.1830 -14.1826 -14.1826 -14.1825 -14.1821 -14.1819 -14.1806
   -14.1783 -14.1627 -14.1625 -14.1625 -14.1625 -14.1208 -14.1195 -14.1192
   -14.0672 -14.0668 -14.0655 -14.0654 -14.0652 -14.0652 -14.0639 -14.0634
   -14.0425 -14.0414 -14.0412 -14.0409 -14.0407 -14.0404 -14.0403 -14.0394
   -14.0159 -14.0157 -14.0152 -14.0150 -14.0140 -14.0137 -14.0132 -14.0131
   -13.9930 -13.9921 -13.9919 -13.9918 -13.9916 -13.9915 -13.9913 -13.9912
   -13.9908 -13.9904 -13.9904 -13.9902 -13.9901 -13.9896 -13.9867 -13.9866
   -13.9866 -13.9866 -13.9864 -13.9864 -13.9861 -13.9860 -13.9855 -13.9847
   -13.9846 -13.9845 -13.9844 -13.9831 -13.9831 -13.9818 -13.9810 -13.9809
   -13.9809 -13.9808 -13.9806 -13.9806 -13.9806 -13.9634 -13.9630 -13.9629
   -13.9628 -13.9580 -13.9576 -13.9574 -13.9574 -13.9443 -13.9401 -13.9393
   -13.9365 -13.9364 -13.9360 -13.9359 -13.9359 -13.9358 -13.9358 -13.9357
   -13.9357 -13.9356 -13.9356 -13.9355 -13.9355 -13.9355 -13.9355 -13.9355
   -13.9355 -13.9353 -13.9353 -13.9352 -13.9352 -13.9351 -13.9348 -13.9347
   -13.9347 -13.9347 -13.9346 -13.9345 -13.9342 -13.9340 -13.9317 -13.9313
   -13.9294 -13.9289 -13.9285 -13.9276 -13.9217 -13.9207 -13.9201 -13.9196
   -13.9191 -13.9188 -13.9185 -13.9184 -13.9170 -13.9161 -13.9155 -13.9154
   -13.9153 -13.9149 -13.9145 -13.9143 -13.9143 -13.9142 -13.9141 -13.9141
   -13.9141 -13.9140 -13.9139 -13.9136 -13.9136 -13.9135 -13.9135 -13.9133
   -13.9133 -13.9132 -13.9129 -13.9124 -13.9111 -13.9107 -13.9081 -13.9072
   -13.9059 -13.9046 -13.9038 -13.9034 -13.9034 -13.9020 -13.9019 -13.9016
   -13.9014 -13.8998 -13.8978 -13.8969 -13.8957 -13.8956 -13.8956 -13.8954
   -13.8954 -13.8953 -13.8952 -13.8951 -13.8950 -13.8949 -13.8947 -13.8946
   -13.8942 -13.8941 -13.8939 -13.8937 -13.8936 -13.8935 -13.8928 -13.8925
   -13.8921 -13.8920 -13.8919 -13.8918 -13.8916 -13.8915 -13.8913 -13.8911
   -13.8911 -13.8908 -13.8904 -13.8903 -13.8902 -13.8896 -13.8896 -13.8896
   -13.8892 -13.8866 -13.8862 -13.8862 -13.8859 -13.8857 -13.8857 -13.8857
   -13.8857 -13.8857 -13.8856 -13.8855 -13.8853 -13.8852 -13.8852 -13.8852
   -13.8851 -13.8851 -13.8844 -13.8815 -13.8813 -13.8758 -10.2581  -9.7878
    -9.7875  -9.7875  -9.7875  -9.3403  -9.3398  -9.3398  -9.3398  -9.1881
    -9.1851  -8.8191  -8.8128  -8.8127  -8.8126  -8.8124  -8.8124  -8.8123
    -8.8066  -8.5485  -8.5477  -8.5476  -8.5476  -8.4965  -8.4897  -8.4892
    -8.4891  -8.4890  -8.4889  -8.4885  -8.4846  -8.4723  -8.4723  -8.4722
    -8.4686  -7.9488  -7.9428  -7.9422  -7.9421  -7.9418  -7.9416  -7.9410
    -7.9359  -7.8902  -7.8860  -7.8857  -7.8855  -7.8852  -7.8851  -7.8847
    -7.8789  -7.5838  -7.5836  -7.5835  -7.5835  -7.4329  -7.4327  -7.1668
    -7.1645  -7.1055  -7.1051  -7.1051  -7.1050  -6.9709  -6.9704  -6.9704
    -6.9703  -6.8005  -6.7960  -6.7957  -6.7954  -6.7948  -6.7943  -6.7940
    -6.7901  -6.7333  -6.6801  -6.6779  -6.6762  -6.6745  -6.6015  -6.5959
    -6.5958  -6.5953  -6.5948  -6.5947  -6.5940  -6.5925  -6.5858  -6.5857
    -6.5855  -6.5854  -6.5771  -6.5747  -6.5747  -6.5743  -6.5738  -6.5738
    -6.5738  -6.5674  -6.5041  -6.5012  -6.5008  -6.5007  -6.5007  -6.5005
    -6.5002  -6.4957   0.4404   0.4859   0.4868   1.2329   1.2353   1.2374
     1.2375   1.2378   1.2379   1.2396   1.2418   1.2944   1.2951   1.2953
     1.2953   1.3122   1.3130   1.3131   1.3134   1.3135   1.3135   1.3145
     1.3145   1.8105   1.8127   1.8139   1.8145   1.8152   1.8158   1.8170
     1.8193   2.2368   2.2368   2.2368   2.2369   2.8173   2.8197   2.8209
     2.8211   2.8215   2.8217   2.8228   2.8253   3.3701   3.3710   3.4064
     3.4064   3.4064   3.4064   3.6829   3.6832   3.6833   3.6833   3.8354
     3.8366   3.8368   3.8369   3.8371   3.8371   3.8374   3.8388   4.1508
     4.1554   4.1556   4.1557   4.1557   4.1558   4.1560   4.1608   4.6091
     4.6108   4.6108   4.6114   4.6126   4.6132   4.6132   4.6150   4.9167
     4.9199   4.9211   4.9214   4.9222   4.9227   4.9239   4.9263   4.9272
     4.9273   5.0051   5.0081   5.0081   5.0090   5.0093   5.0103   5.0104
     5.0134   5.2210   5.2210   5.4191   5.4192   5.4192   5.4192   5.5879
[...]
     8.0948   8.0959   8.0962   8.1642   8.1642   8.1642   8.1643   8.3036
     8.3036   8.3036   8.3036   8.4457   8.4457   8.4459   8.4459   8.4840
     8.4858   8.4868   8.4872   8.4884   8.4889   8.4899   8.4918   8.5171
     8.5172   8.6112   8.6113   8.6113   8.6113   8.6260   8.6262   8.6263
     8.6264   8.6479   8.6505   8.6507   8.6508   8.6514   8.6516   8.6518
     8.6540   8.7164   8.7164   8.7165   8.7165   8.9281   8.9306   8.9318
     8.9319   8.9328   8.9329   8.9341   8.9363   9.0421   9.0436   9.0445
     9.0449   9.0452   9.0456   9.0464   9.0479   9.1421   9.1439   9.1446
     9.1460   9.1520   9.1526   9.1528   9.1538   9.1542   9.1553   9.1561
     9.1562   9.2525   9.2546   9.2550   9.2559   9.2565   9.2573   9.2580
     9.2591   9.2859   9.2860   9.2861   9.2866   9.4628   9.4644   9.5274
     9.5299   9.5302   9.5303   9.5384   9.5400   9.5404   9.5404   9.5405
     9.5407   9.5409   9.5448   9.5817   9.5835   9.5836   9.5840   9.5850
     9.5854   9.5855   9.5883   9.6811   9.6812   9.6813   9.6814   9.7107
     9.7108   9.9198   9.9198   9.9199   9.9201  10.4932

[...]

          k = 0.3333-0.3248-0.3248 ( 83032 PWs)   bands (ev):

   -14.2672 -14.2666 -14.2666 -14.2666 -14.2666 -14.2666 -14.2666 -14.2665
   -14.2629 -14.2626 -14.2626 -14.2625 -14.2490 -14.2488 -14.2487 -14.2487
   -14.2421 -14.2419 -14.2329 -14.2325 -14.2325 -14.2325 -14.1951 -14.1942
   -14.1942 -14.1941 -14.1869 -14.1867 -14.1823 -14.1820 -14.1820 -14.1819
   -14.1819 -14.1819 -14.1819 -14.1818 -14.1574 -14.1574 -14.1574 -14.1574
   -14.1573 -14.1573 -14.1569 -14.1569 -14.1206 -14.1200 -14.1164 -14.1164
   -14.1164 -14.1161 -14.1041 -14.1041 -14.1041 -14.1039 -14.0973 -14.0973
   -14.0973 -14.0973 -14.0934 -14.0933 -14.0546 -14.0544 -14.0544 -14.0544
   -14.0544 -14.0543 -14.0543 -14.0543 -14.0366 -14.0364 -14.0355 -14.0352
   -14.0352 -14.0351 -14.0294 -14.0294 -14.0293 -14.0287 -14.0193 -14.0192
   -14.0192 -14.0192 -14.0183 -14.0183 -14.0182 -14.0182 -14.0172 -14.0171
   -14.0168 -14.0168 -14.0168 -14.0167 -14.0167 -14.0166 -14.0165 -14.0165
   -13.9929 -13.9927 -13.9927 -13.9927 -13.9927 -13.9927 -13.9926 -13.9925
   -13.9891 -13.9890 -13.9890 -13.9889 -13.9758 -13.9750 -13.9749 -13.9749
   -13.9666 -13.9662 -13.9609 -13.9593 -13.9591 -13.9589 -13.9588 -13.9588
   -13.9588 -13.9587 -13.9557 -13.9557 -13.9554 -13.9543 -13.9497 -13.9489
   -13.9469 -13.9460 -13.9458 -13.9457 -13.9451 -13.9448 -13.9448 -13.9448
   -13.9447 -13.9447 -13.9443 -13.9443 -13.9442 -13.9442 -13.9442 -13.9440
   -13.9439 -13.9436 -13.9430 -13.9426 -13.9425 -13.9425 -13.9416 -13.9416
   -13.9412 -13.9411 -13.9388 -13.9385 -13.9384 -13.9384 -13.9344 -13.9343
   -13.9341 -13.9327 -13.9194 -13.9193 -13.9193 -13.9192 -13.9153 -13.9149
   -13.9147 -13.9147 -13.9147 -13.9147 -13.9146 -13.9146 -13.9126 -13.9125
   -13.9118 -13.9118 -13.9117 -13.9115 -13.9115 -13.9097 -13.9097 -13.9094
   -13.9035 -13.9018 -13.9015 -13.9013 -13.9013 -13.9009 -13.9008 -13.9006
   -13.8998 -13.8997 -13.8997 -13.8997 -13.8996 -13.8996 -13.8996 -13.8996
   -13.8995 -13.8993 -13.8992 -13.8986 -13.8982 -13.8981 -13.8965 -13.8964
   -13.8964 -13.8959 -13.8958 -13.8957 -13.8956 -13.8950 -13.8948 -13.8929
   -13.8929 -13.8929 -13.8929 -13.8928 -13.8928 -13.8927 -13.8926 -13.8925
   -13.8925 -13.8918 -13.8918 -13.8916 -13.8916 -13.8914 -13.8913 -13.8913
   -13.8911 -13.8909 -13.8905 -13.8903 -13.8900 -13.8899 -13.8897 -13.8892
   -13.8886 -13.8885 -13.8884 -13.8884 -13.8884 -13.8884 -13.8884 -13.8881
   -13.8881 -13.8881 -13.8879 -13.8877 -13.8877 -13.8873 -13.8873 -13.8868
   -13.8858 -13.8856 -13.8854 -13.8854 -13.8853 -13.8849 -13.8847 -13.8846
   -13.8846 -13.8845 -13.8844 -13.8816 -13.8809 -13.8760  -9.8983  -9.8981
    -9.8980  -9.8980  -9.5448  -9.5447  -9.5447  -9.5447  -9.0251  -9.0245
    -9.0245  -9.0245  -9.0244  -9.0244  -9.0243  -9.0243  -8.7270  -8.7266
    -8.7266  -8.7265  -8.7265  -8.7264  -8.7264  -8.7264  -8.5881  -8.5879
    -8.3741  -8.3732  -8.3445  -8.3444  -8.3444  -8.3432  -8.0004  -8.0000
    -8.0000  -7.9999  -7.9999  -7.9998  -7.9998  -7.9994  -7.8819  -7.8812
    -7.8482  -7.8482  -7.8481  -7.8478  -7.7723  -7.7722  -7.7722  -7.7717
    -7.6497  -7.6496  -7.6495  -7.6489  -7.5148  -7.5146  -7.3705  -7.3702
    -7.3701  -7.3701  -7.2061  -7.2059  -7.0737  -7.0734  -7.0733  -7.0733
    -6.9071  -6.9066  -6.9066  -6.9065  -6.9064  -6.9064  -6.9064  -6.9064
    -6.7380  -6.7377  -6.7377  -6.7376  -6.7376  -6.7376  -6.7375  -6.7374
    -6.5741  -6.5740  -6.5379  -6.5366  -6.5360  -6.5359  -6.5212  -6.5206
    -6.5206  -6.5205  -6.5205  -6.5204  -6.5204  -6.5202  -6.5121  -6.5120
    -6.5113  -6.5092  -6.4703  -6.4702  -6.4701  -6.4699  -6.4690  -6.4689
    -6.4689  -6.4675   0.6175   0.6189   0.8848   0.8860   0.8860   0.8861
     0.9029   0.9030   0.9030   0.9039   1.0145   1.0153   1.0153   1.0163
     1.3348   1.3364   1.3365   1.3366   1.3367   1.3368   1.3369   1.3385
     1.9828   1.9831   1.9831   1.9834   2.2633   2.2645   2.3381   2.3395
     2.3396   2.3397   2.3397   2.3398   2.3399   2.3411   2.5049   2.5053
     2.5054   2.5054   2.5055   2.5055   2.5055   2.5062   3.1431   3.1440
     3.8612   3.8619   3.8620   3.8626   4.0358   4.0359   4.0359   4.0361
     4.0720   4.0720   4.0722   4.0727   4.0728   4.0732   4.0734   4.0734
     4.0910   4.0911   4.2671   4.2676   4.2676   4.2682   4.5657   4.5661
     4.5662   4.5665   4.5665   4.5668   4.5669   4.5674   4.7118   4.7119
     4.7120   4.7120   4.7849   4.7850   4.7852   4.7852   4.8035   4.8036
     4.8036   4.8038   5.0710   5.0715   5.0715   5.0719   5.0720   5.0723
     5.0724   5.0727   5.3762   5.3763   5.3763   5.3763   5.4985   5.4985
[...]
     8.0391   8.0396   8.1096   8.1097   8.1098   8.1100   8.1100   8.1103
     8.1104   8.1109   8.1444   8.1445   8.1447   8.1447   8.2147   8.2149
     8.2149   8.2150   8.3053   8.3053   8.3054   8.3054   8.5088   8.5093
     8.5094   8.5097   8.5097   8.5097   8.5098   8.5098   8.5185   8.5185
     8.5187   8.5187   8.5189   8.5191   8.5193   8.5195   8.7250   8.7250
     8.7250   8.7251   8.8003   8.8003   8.8004   8.8005   8.9319   8.9319
     8.9321   8.9321   8.9322   8.9323   8.9323   8.9325   9.0026   9.0027
     9.0547   9.0549   9.0549   9.0549   9.0869   9.0870   9.0870   9.0872
     9.1094   9.1095   9.2021   9.2023   9.2039   9.2040   9.2438   9.2439
     9.2440   9.2441   9.2594   9.2594   9.2594   9.2595   9.2596   9.2596
     9.2596   9.2597   9.2935   9.2936   9.3768   9.3769   9.4454   9.4454
     9.4454   9.4455   9.5172   9.5173   9.5174   9.5175   9.5175   9.5175
     9.5175   9.5176   9.5781   9.5782   9.5783   9.5785   9.5878   9.5878
     9.5879   9.5879   9.5879   9.5881   9.5885   9.5886   9.9747   9.9748
     9.9748   9.9748  10.1644  10.1645  10.1645  10.1649

     highest occupied level (ev):    10.4932

!    total energy              =  -13225.90712816 Ry
     estimated scf accuracy    <          6.7E-09 Ry

     The total energy is the sum of the following terms:
     one-electron contribution =   -4400.33234138 Ry
     hartree contribution      =    3316.27705548 Ry
     xc contribution           =   -3278.83796481 Ry
     ewald contribution        =   -8863.01387745 Ry

     convergence has been achieved in  13 iterations

     Forces acting on atoms (cartesian axes, Ry/au):

     atom    1 type  1   force =    -0.00021843    0.00026076    0.00026076
     atom    2 type  1   force =     0.00048785   -0.00000691   -0.00000691
     atom    3 type  1   force =    -0.00021375   -0.00027508   -0.00027508
     atom    4 type  1   force =     0.00003186    0.00001121    0.00000015
     atom    5 type  1   force =     0.00005541    0.00001149   -0.00000254
     atom    6 type  1   force =     0.00003167    0.00001112   -0.00000631
     atom    7 type  1   force =    -0.00021311   -0.00093543    0.00096994
     atom    8 type  1   force =     0.00048359    0.00004378   -0.00000847
     atom    9 type  1   force =    -0.00021464    0.00101769   -0.00098233
     atom   10 type  1   force =     0.00003186    0.00000015    0.00001121
     atom   11 type  1   force =     0.00005541   -0.00000254    0.00001149
     atom   12 type  1   force =     0.00003167   -0.00000631    0.00001112
     atom   13 type  1   force =     0.00003753    0.00001673    0.00001673
     atom   14 type  1   force =     0.00004675    0.00001522    0.00001522
     atom   15 type  1   force =     0.00003646    0.00001562    0.00001562
     atom   16 type  1   force =     0.00003250    0.00003560    0.00002129
     atom   17 type  1   force =     0.00005564    0.00003832    0.00002091
     atom   18 type  1   force =     0.00003049    0.00004165    0.00002091
     atom   19 type  1   force =    -0.00021311    0.00096994   -0.00093543
     atom   20 type  1   force =     0.00048359   -0.00000847    0.00004378
     atom   21 type  1   force =    -0.00021464   -0.00098233    0.00101769
     atom   22 type  1   force =     0.00003250    0.00002129    0.00003560
     atom   23 type  1   force =     0.00005564    0.00002091    0.00003832
     atom   24 type  1   force =     0.00003049    0.00002091    0.00004165
     atom   25 type  1   force =    -0.00021882   -0.00022634   -0.00022634
     atom   26 type  1   force =     0.00048762    0.00004265    0.00004265
     atom   27 type  1   force =    -0.00021414    0.00031100    0.00031100
     atom   28 type  1   force =    -0.01286905    0.00001247    0.00001247
     atom   29 type  1   force =     0.00303792    0.00001239    0.00001239
     atom   30 type  1   force =     0.00299192    0.00001153    0.00001153
     atom   31 type  1   force =    -0.00014910   -0.00002041    0.00001168
     atom   32 type  1   force =    -0.00001407    0.00011980    0.00008956
     atom   33 type  1   force =    -0.00001232   -0.00016008   -0.00006891
     atom   34 type  1   force =    -0.00014948    0.00004285    0.00001314
     atom   35 type  1   force =    -0.00001357   -0.00009770   -0.00006564
     atom   36 type  1   force =    -0.00001207    0.00018223    0.00009164
     atom   37 type  1   force =    -0.00014910    0.00001168   -0.00002041
     atom   38 type  1   force =    -0.00001407    0.00008956    0.00011980
     atom   39 type  1   force =    -0.00001232   -0.00006891   -0.00016008
     atom   40 type  1   force =    -0.00008939   -0.00001188   -0.00001188
     atom   41 type  1   force =    -0.00004207    0.00002431    0.00002431
     atom   42 type  1   force =    -0.00004312   -0.00004590   -0.00004590
     atom   43 type  1   force =    -0.00009994    0.00004050   -0.00001834
     atom   44 type  1   force =    -0.00003632    0.00002158    0.00000079
     atom   45 type  1   force =    -0.00003484    0.00005926   -0.00003604
     atom   46 type  1   force =    -0.00014948    0.00001314    0.00004285
     atom   47 type  1   force =    -0.00001357   -0.00006564   -0.00009770
     atom   48 type  1   force =    -0.00001207    0.00009164    0.00018223
     atom   49 type  1   force =    -0.00009994   -0.00001834    0.00004050
     atom   50 type  1   force =    -0.00003632    0.00000079    0.00002158
     atom   51 type  1   force =    -0.00003484   -0.00003604    0.00005926
     atom   52 type  1   force =    -0.00008912    0.00003420    0.00003420
     atom   53 type  1   force =    -0.00004298   -0.00000182   -0.00000182
     atom   54 type  1   force =    -0.00004264    0.00006921    0.00006921
     atom   55 type  2   force =    -0.00001168   -0.00097875   -0.00097875
     atom   56 type  2   force =    -0.00001689   -0.00107241   -0.00107241
     atom   57 type  2   force =    -0.00001703   -0.00088835   -0.00088835
     atom   58 type  2   force =     0.00000381   -0.00090838   -0.00096454
     atom   59 type  2   force =    -0.00001518   -0.00090493   -0.00096845
     atom   60 type  2   force =    -0.00001480   -0.00091176   -0.00096057
[...]
     atom  148 type  2   force =     0.00001845   -0.00105383    0.00099883
     atom  149 type  2   force =     0.00001539   -0.00104516    0.00099023
     atom  150 type  2   force =     0.00001829   -0.00103639    0.00098146
     atom  151 type  2   force =     0.00002724   -0.00077833    0.00098736
     atom  152 type  2   force =    -0.00000349   -0.00077796    0.00097399
     atom  153 type  2   force =     0.00002681   -0.00077776    0.00096047
     atom  154 type  2   force =     0.00192713   -0.00037634    0.00034480
     atom  155 type  2   force =    -0.00053038   -0.00081786    0.00078623
     atom  156 type  2   force =     0.00183080   -0.00119292    0.00116119
     atom  157 type  2   force =     0.00004001   -0.00106284    0.00081624
     atom  158 type  2   force =    -0.00003920   -0.00104933    0.00080605
     atom  159 type  2   force =     0.00003982   -0.00103555    0.00079558
     atom  160 type  2   force =     0.00008096   -0.00073761    0.00080998
     atom  161 type  2   force =    -0.00009327   -0.00077541    0.00077843
     atom  162 type  2   force =     0.00007995   -0.00081424    0.00074750

     Total force =     0.019346     Total SCF correction =     0.000309

     General routines

     Parallel routines

   This run was terminated on:  17:53:40  19May2025

   JOB DONE.