     Program PWSCF v.6.8 starts on 29Apr2025 at  6:42:23

     R & G space division:  proc/nbgrp/npool/nimage =      56

     Reading input from surface_relax.in
Warning: card &CELL ignored
Warning: card / ignored
Warning: card &FCP ignored
Warning: card / ignored
Warning: card &RISM ignored
Warning: card / ignored

     Current dimensions of program PWSCF are:
     Max number of different atomic species (ntypx) = 10
     Max number of k-points (npk) =  40000
     Max angular momentum in pseudopotentials (lmaxx) =  4

     Using Slab Decomposition

     bravais-lattice index     =            0
     lattice parameter (alat)  =       7.7101  a.u.
     unit-cell volume          =    4515.3380 (a.u.)^3
     number of atoms/cell      =           16
     number of atomic types    =            1
     number of electrons       =       224.00
     number of Kohn-Sham states=          134
     kinetic-energy cutoff     =      60.0000  Ry
     charge density cutoff     =     240.0000  Ry
     scf convergence threshold =      1.0E-06
     mixing beta               =       0.4000
     number of iterations used =            8  plain     mixing
     energy convergence thresh.=      1.0E-04
     force convergence thresh. =      1.0E-03
     Exchange-correlation= PBE
                           (   1   4   3   4   0   0   0)
     nstep                     =           50

     celldm(1)=   7.710094  celldm(2)=   0.000000  celldm(3)=   0.000000
     celldm(4)=   0.000000  celldm(5)=   0.000000  celldm(6)=   0.000000

     crystal axes: (cart. coord. in units of alat)
               a(1) = (   1.000000   0.000000   0.000000 )
               a(2) = (   0.000000   2.000000   0.000000 )
               a(3) = (   0.000000   0.000000   4.925850 )

     reciprocal axes: (cart. coord. in units 2 pi/alat)
               b(1) = (  1.000000  0.000000  0.000000 )
               b(2) = (  0.000000  0.500000  0.000000 )
               b(3) = (  0.000000  0.000000  0.203011 )

     PseudoPot. # 1 for Ge read from file:
     ./Ge.upf
     MD5 check sum: 087fa14d6c89b52166990835c3b338da
     Pseudo is Norm-conserving + core correction, Zval = 14.0
     Generated using ONCVPSP code by D. R. Hamann
     Using radial grid of 1560 points,  6 beta functions with:
                l(1) =   0
                l(2) =   0
                l(3) =   1
                l(4) =   1
                l(5) =   2
                l(6) =   2

     atomic species   valence    mass     pseudopotential
        Ge            14.00    72.63000     Ge( 1.00)

     No symmetry found

   Cartesian axes

     site n.     atom                  positions (alat units)
         1           Ge  tau(   1) = (  -0.0030167   0.0022822   1.2249412  )
         2           Ge  tau(   2) = (   0.4965281  -0.0042770   1.5816872  )
         3           Ge  tau(   3) = (   0.5022038   0.5013653   1.9311228  )
         4           Ge  tau(   4) = (  -0.0044388   0.4990746   2.2850576  )
         5           Ge  tau(   5) = (   0.0037001  -0.0027294   2.6416047  )
         6           Ge  tau(   6) = (   0.4981555  -0.0037062   2.9903973  )
         7           Ge  tau(   7) = (   0.5025211   0.5017817   3.3490987  )
         8           Ge  tau(   8) = (  -0.0014378   0.5033169   3.6987207  )
         9           Ge  tau(   9) = (  -0.0040734   0.9953772   1.2297627  )
        10           Ge  tau(  10) = (   0.4982794   1.0005708   1.5836744  )
        11           Ge  tau(  11) = (   0.4961801   1.4982797   1.9278518  )
        12           Ge  tau(  12) = (  -0.0000030   1.4971001   2.2860165  )
        13           Ge  tau(  13) = (   0.0032972   0.9967567   2.6378694  )
        14           Ge  tau(  14) = (   0.4992039   0.9970407   2.9954687  )
        15           Ge  tau(  15) = (   0.5048462   1.5016891   3.3452237  )
        16           Ge  tau(  16) = (   0.0033769   1.5007561   3.6967257  )

     number of k points=    10  Gaussian smearing, width (Ry)=  0.0100
                       cart. coord. in units 2pi/alat
        k(    1) = (   0.0000000   0.0000000   0.0000000), wk =   0.1250000
        k(    2) = (   0.0000000   0.1250000   0.0000000), wk =   0.2500000
        k(    3) = (   0.0000000  -0.2500000   0.0000000), wk =   0.1250000
        k(    4) = (   0.2500000   0.0000000   0.0000000), wk =   0.2500000
        k(    5) = (   0.2500000   0.1250000   0.0000000), wk =   0.2500000
        k(    6) = (   0.2500000  -0.2500000   0.0000000), wk =   0.2500000
        k(    7) = (  -0.5000000   0.0000000   0.0000000), wk =   0.1250000
        k(    8) = (  -0.5000000   0.1250000   0.0000000), wk =   0.2500000
        k(    9) = (  -0.5000000  -0.2500000   0.0000000), wk =   0.1250000
        k(   10) = (  -0.2500000   0.1250000   0.0000000), wk =   0.2500000

     Initial potential from superposition of free atoms

     starting charge  223.98683, renormalised to  224.00000

     negative rho (up, down):  1.280E-05 0.000E+00
     Starting wfcs are  144 randomized atomic wfcs

     Self-consistent Calculation

     iteration #  1     ecut=    60.00 Ry     beta= 0.40
     Davidson diagonalization with overlap
     ethr =  1.00E-02,  avg # of iterations =  3.1

     Threshold (ethr) on eigenvalues was too large:
     Diagonalizing with lowered threshold

     Davidson diagonalization with overlap
     ethr =  2.23E-04,  avg # of iterations =  6.6

     negative rho (up, down):  3.888E-06 0.000E+00

     total energy              =   -2857.17310144 Ry
     estimated scf accuracy    <       0.54364082 Ry

[...]

     End of self-consistent calculation

          k = 0.0000 0.0000 0.0000 ( 35449 PWs)   bands (ev):

   -21.8680 -21.8638 -21.8589 -21.8547 -21.8379 -21.8322 -21.8309 -21.8188
   -21.8132 -21.8075 -21.7952 -21.7948 -21.7871 -21.7841 -21.7819 -21.7813
   -21.7794 -21.7775 -21.7515 -21.7498 -21.7455 -21.7430 -21.7381 -21.7048
   -21.7026 -21.6770 -21.6730 -21.6712 -21.6660 -21.6637 -21.6629 -21.6620
   -21.6611 -21.6593 -21.6301 -21.6283 -21.6243 -21.6232 -21.6221 -21.6199
   -21.6199 -21.6125 -21.6114 -21.6092 -21.6062 -21.6041 -21.6035 -21.6014
   -21.5999 -21.5959 -21.5923 -21.5910 -21.5893 -21.5856 -21.5812 -21.5770
   -21.5406 -21.5335 -21.5326 -21.5311 -21.4416 -21.4396 -21.4385 -21.4310
   -21.4277 -21.4246 -21.4194 -21.4150 -21.3977 -21.3895 -21.3860 -21.3843
   -21.3839 -21.3825 -21.3733 -21.3720 -21.3445 -21.3342 -21.3339 -21.3317
    -9.0462  -8.3943  -7.4411  -7.4243  -7.3852  -7.0400  -7.0219  -6.0972
    -4.5226  -3.9427  -3.9026  -2.8222  -2.7595  -2.6985  -0.7579   0.0288
     0.0466   0.4314   0.4449   1.0655   1.1222   1.1667   1.6901   1.7200
     1.8206   1.8296   1.9400   1.9978   2.0422   2.1548   2.7581   2.8621
     2.8724   3.2635   3.9453   3.9987   4.3169   4.5031   4.5749   4.5883
     4.6341   4.9321   5.0265   5.0544   5.0770   5.2053   5.3949   6.2780
     7.1009   7.1158   7.1792   7.2081   7.2417   7.3586

[...]

          k =-0.5000 0.0000 0.0000 ( 35284 PWs)   bands (ev):

[...]

     the Fermi energy is     2.6693 ev

!    total energy              =   -2857.30028214 Ry
     estimated scf accuracy    <       0.00000052 Ry
     smearing contrib. (-TS)   =      -0.00715280 Ry
     internal energy E=F+TS    =   -2857.29312933 Ry

     The total energy is F=E-TS. E is the sum of the following terms:
     one-electron contribution =   -7693.70681019 Ry
     hartree contribution      =    3947.05019026 Ry
     xc contribution           =    -697.03942055 Ry
     ewald contribution        =    1586.40291115 Ry

     convergence has been achieved in  12 iterations

     Forces acting on atoms (cartesian axes, Ry/au):

     atom    1 type  1   force =    -0.00035454    0.00184452   -0.00400618
     atom    2 type  1   force =     0.00059869    0.00562725   -0.00062744
     atom    3 type  1   force =    -0.00785672   -0.00524546    0.00229242
     atom    4 type  1   force =     0.00869839   -0.00380012    0.00415451
     atom    5 type  1   force =    -0.00744246    0.00153838   -0.00863639
     atom    6 type  1   force =     0.00655105    0.00740932    0.00408995
     atom    7 type  1   force =    -0.00397365   -0.00822546   -0.00894410
     atom    8 type  1   force =     0.00422685    0.00063695    0.00832755
     atom    9 type  1   force =     0.00264939   -0.00179296   -0.00725696
     atom   10 type  1   force =    -0.00227531   -0.00164652   -0.00151548
     atom   11 type  1   force =     0.00422594    0.00083706    0.01133671
     atom   12 type  1   force =    -0.00390775    0.00111327    0.00175478
     atom   13 type  1   force =    -0.00493088    0.00165657    0.00014880
     atom   14 type  1   force =     0.00407841    0.00459252   -0.00349282
     atom   15 type  1   force =    -0.00110647   -0.00370798   -0.00552556
     atom   16 type  1   force =     0.00081908   -0.00083734    0.00790021

     Total force =     0.034320     Total SCF correction =     0.004207
     SCF correction compared to forces is large: reduce conv_thr to get better values

     BFGS Geometry Optimization
     Energy error            =      0.0E+00 Ry
     Gradient error          =      1.1E-02 Ry/Bohr

     number of scf cycles    =   1
     number of bfgs steps    =   0

     energy             new  =   -2857.3002821360 Ry

     new trust radius        =       0.0127845604 bohr
     new conv_thr            =       0.0000010000 Ry

ATOMIC_POSITIONS (angstrom)
Ge           -0.0124957060        0.0102874997        4.9956477803
Ge            2.0261546874       -0.0144724561        6.4529613863
Ge            2.0448370460        2.0427977874        7.8802060519
Ge           -0.0135074322        2.0342165985        9.3252474226
Ge            0.0111578981       -0.0103218734       10.7731933643
Ge            2.0359442321       -0.0112005888       12.2030036236
Ge            2.0481865675        2.0429197325       13.6596102217
Ge           -0.0036294466        2.0538731840       15.0952097783
Ge           -0.0152176324        4.0601963295        5.0135991101
Ge            2.0317788476        4.0814635865        6.4605992510
Ge            2.0266541801        6.1134334436        7.8716464800
Ge           -0.0020802803        6.1087665787        9.3278900607
Ge            0.0108434556        4.0676500567       10.7626022455
Ge            2.0389133508        4.0703623734       12.2196823575
Ge            2.0591899502        6.1249383923       13.6456092397
Ge            0.0142113902        6.1226508608       15.0868441609

     Writing output data file ./out/ge.save/
     NEW-OLD atomic charge density approx. for the potential

[...]

     Total force =     0.025631     Total SCF correction =     0.002887
     SCF correction compared to forces is large: reduce conv_thr to get better values
     Energy error            =      1.0E-03 Ry
     Gradient error          =      8.7E-03 Ry/Bohr

[...]

     energy             old  =   -2857.3002821360 Ry
     energy             new  =   -2857.3013117469 Ry

     CASE: energy            _new < energy            _old

[...]

     Total force =     0.016986     Total SCF correction =     0.001098
     Energy error            =      8.1E-04 Ry
     Gradient error          =      5.8E-03 Ry/Bohr

[...]

     iteration #  2     ecut=    60.00 Ry     beta= 0.40
     Davidson diagonalization with overlap
     c_bands:  2 eigenvalues not converged
     ethr =  2.73E-07,  avg # of iterations =  5.4

[...]

     WARNING: bfgs curvature condition failed, Theta= 0.879
     new trust radius        =       0.0579765947 bohr
     new conv_thr            =       0.0000003335 Ry

[...]

     CASE: energy            _new > energy            _old

[...]

     Total force =     0.004294     Total SCF correction =     0.000372
     Energy error            =      3.3E-05 Ry
     Gradient error          =      1.8E-03 Ry/Bohr

[...]

     new trust radius        =       0.0127222831 bohr

     The maximum number of steps has been reached.

     End of BFGS Geometry Optimization

[...]

     Writing output data file ./out/ge.save/

     General routines

     Parallel routines

   This run was terminated on:   7:16:55  29Apr2025

   JOB DONE.

     Program PWSCF v.6.8 starts on 29Apr2025 at  7:54:19

     R & G space division:  proc/nbgrp/npool/nimage =      56

     Reading input from surface_relax.in
Warning: card &CELL ignored
Warning: card / ignored
Warning: card &FCP ignored
Warning: card / ignored
Warning: card &RISM ignored
Warning: card / ignored

     Current dimensions of program PWSCF are:
     Max number of different atomic species (ntypx) = 10
     Max number of k-points (npk) =  40000
     Max angular momentum in pseudopotentials (lmaxx) =  4

     Using Slab Decomposition

     bravais-lattice index     =            0
     lattice parameter (alat)  =       7.7101  a.u.
     unit-cell volume          =    4515.3380 (a.u.)^3
     number of atoms/cell      =           16
     number of atomic types    =            1
     number of electrons       =       224.00
     number of Kohn-Sham states=          134
     kinetic-energy cutoff     =      60.0000  Ry
     charge density cutoff     =     240.0000  Ry
     scf convergence threshold =      1.0E-06
     mixing beta               =       0.4000
     number of iterations used =            8  plain     mixing
     energy convergence thresh.=      1.0E-04
     force convergence thresh. =      1.0E-03
     Exchange-correlation= PBE
                           (   1   4   3   4   0   0   0)
     nstep                     =          100

     celldm(1)=   7.710094  celldm(2)=   0.000000  celldm(3)=   0.000000
     celldm(4)=   0.000000  celldm(5)=   0.000000  celldm(6)=   0.000000

     crystal axes: (cart. coord. in units of alat)
               a(1) = (   1.000000   0.000000   0.000000 )
               a(2) = (   0.000000   2.000000   0.000000 )
               a(3) = (   0.000000   0.000000   4.925850 )

     reciprocal axes: (cart. coord. in units 2 pi/alat)
               b(1) = (  1.000000  0.000000  0.000000 )
               b(2) = (  0.000000  0.500000  0.000000 )
               b(3) = (  0.000000  0.000000  0.203011 )

     PseudoPot. # 1 for Ge read from file:
     ./Ge.upf
     MD5 check sum: 087fa14d6c89b52166990835c3b338da
     Pseudo is Norm-conserving + core correction, Zval = 14.0
     Generated using ONCVPSP code by D. R. Hamann
     Using radial grid of 1560 points,  6 beta functions with:
                l(1) =   0
                l(2) =   0
                l(3) =   1
                l(4) =   1
                l(5) =   2
                l(6) =   2

     atomic species   valence    mass     pseudopotential
        Ge            14.00    72.63000     Ge( 1.00)

     No symmetry found

   Cartesian axes

     site n.     atom                  positions (alat units)
         1           Ge  tau(   1) = (   0.0039189   0.2778040   1.3855159  )
         2           Ge  tau(   2) = (   0.5033249  -0.0111811   1.5626502  )
         3           Ge  tau(   3) = (   0.4964601   0.4819472   1.9660637  )
         4           Ge  tau(   4) = (  -0.0030968   0.4604077   2.3099350  )
         5           Ge  tau(   5) = (  -0.0002104  -0.0355103   2.6653217  )
         6           Ge  tau(   6) = (   0.4997363  -0.0413243   3.0239641  )
         7           Ge  tau(   7) = (   0.4977715   0.4957647   3.3380879  )
         8           Ge  tau(   8) = (  -0.0025187   0.7775471   3.5338259  )
         9           Ge  tau(   9) = (   0.0009109   0.8641747   1.1989611  )
        10           Ge  tau(  10) = (   0.5002434   0.9515757   1.5651879  )
        11           Ge  tau(  11) = (   0.5001870   1.4718121   1.9044901  )
        12           Ge  tau(  12) = (   0.0000267   1.4896928   2.2614877  )
        13           Ge  tau(  13) = (   0.0005072   0.9870912   2.6114987  )
        14           Ge  tau(  14) = (   0.5010984   1.0079931   2.9550494  )
        15           Ge  tau(  15) = (   0.4984604   1.4514202   3.3790279  )
        16           Ge  tau(  16) = (  -0.0014971   1.3554639   3.7441563  )

     number of k points=    10  Gaussian smearing, width (Ry)=  0.0100
                       cart. coord. in units 2pi/alat
        k(    1) = (   0.0000000   0.0000000   0.0000000), wk =   0.1250000
        k(    2) = (   0.0000000   0.1250000   0.0000000), wk =   0.2500000
        k(    3) = (   0.0000000  -0.2500000   0.0000000), wk =   0.1250000
        k(    4) = (   0.2500000   0.0000000   0.0000000), wk =   0.2500000
        k(    5) = (   0.2500000   0.1250000   0.0000000), wk =   0.2500000
        k(    6) = (   0.2500000  -0.2500000   0.0000000), wk =   0.2500000
        k(    7) = (  -0.5000000   0.0000000   0.0000000), wk =   0.1250000
        k(    8) = (  -0.5000000   0.1250000   0.0000000), wk =   0.2500000
        k(    9) = (  -0.5000000  -0.2500000   0.0000000), wk =   0.1250000
        k(   10) = (  -0.2500000   0.1250000   0.0000000), wk =   0.2500000

     Initial potential from superposition of free atoms

     starting charge  223.98683, renormalised to  224.00000

     negative rho (up, down):  5.127E-05 0.000E+00
     Starting wfcs are  144 randomized atomic wfcs

[...]

     negative rho (up, down):  9.774E-07 0.000E+00

[...]

     Total force =     0.004127     Total SCF correction =     0.004357
     SCF correction compared to forces is large: reduce conv_thr to get better values

     BFGS Geometry Optimization
     Energy error            =      0.0E+00 Ry
     Gradient error          =      2.1E-03 Ry/Bohr

[...]

     energy             new  =   -2857.4665591523 Ry

[...]

     number of scf cycles    =   2
     number of bfgs steps    =   1

     energy             old  =   -2857.4665591523 Ry
     energy             new  =   -2857.4665731135 Ry

     CASE: energy            _new < energy            _old

     new trust radius        =       0.0023273130 bohr
     new conv_thr            =       0.0000000100 Ry

ATOMIC_POSITIONS (angstrom)
Ge            0.0159105211        1.1335130842        5.6531517590
Ge            2.0540305365       -0.0455980612        6.3744184096
Ge            2.0260719386        1.9664010976        8.0226933454
Ge           -0.0132089454        1.8780717434        9.4236614817
Ge           -0.0007494893       -0.1450549278       10.8749487233
Ge            2.0388215941       -0.1702067303       12.3377262748
Ge            2.0307303288        2.0249432273       13.6187283613
Ge           -0.0104300810        3.1720116664       14.4183803409
Ge            0.0029528447        3.5267638284        4.8910782100
Ge            2.0415035508        3.8813114103        6.3862700577
Ge            2.0406567056        6.0056457311        7.7702375167
Ge            0.0001469754        6.0788856980        9.2268581428
Ge            0.0027876192        4.0270364235       10.6554894350
Ge            2.0438424183        4.1122614024       12.0577989862
Ge            2.0339488110        5.9216860614       13.7867494145
Ge           -0.0060742201        5.5298898510       15.2753620752

     Writing output data file ./out/ge.save/
     NEW-OLD atomic charge density approx. for the potential

     Self-consistent Calculation

[...]

     Threshold (ethr) on eigenvalues was too large:
     Diagonalizing with lowered threshold

     Davidson diagonalization with overlap
     ethr =  3.79E-08,  avg # of iterations =  1.6

[...]

     iteration #  2     ecut=    60.00 Ry     beta= 0.40
     Davidson diagonalization with overlap
     c_bands:  1 eigenvalues not converged
     ethr =  3.79E-08,  avg # of iterations =  4.1

[...]

     total energy              =   -2857.46658572 Ry
     estimated scf accuracy    <       0.00000002 Ry

     iteration #  7     ecut=    60.00 Ry     beta= 0.40
     Davidson diagonalization with overlap
     ethr =  8.07E-12,  avg # of iterations =  2.0

     End of self-consistent calculation

[...]

          k = 0.2500-0.2500 0.0000 ( 35426 PWs)   bands (ev):

[...]

          k =-0.2500 0.1250 0.0000 ( 35448 PWs)   bands (ev):

   -22.0282 -22.0215 -21.9832 -21.9778 -21.9523 -21.9461 -21.9088 -21.9030
   -21.8737 -21.8680 -21.7558 -21.7454 -21.7381 -21.7287 -21.7116 -21.6986
   -21.6977 -21.6680 -21.6655 -21.6537 -21.6430 -21.6194 -21.6137 -21.6098
   -21.6045 -21.6011 -21.5893 -21.5829 -21.5768 -21.5731 -21.5617 -21.5596
   -21.5544 -21.5491 -21.5443 -21.5390 -21.5315 -21.5244 -21.5199 -21.5159
   -21.5088 -21.5001 -21.4960 -21.4885 -21.4858 -21.4799 -21.4753 -21.4725
   -21.4692 -21.4660 -21.4477 -21.4319 -21.4127 -21.4015 -21.3763 -21.3735
   -21.3613 -21.3598 -21.3530 -21.3479 -21.3443 -21.3377 -21.3310 -21.3257
   -21.3230 -21.3198 -21.3020 -21.2902 -21.2888 -21.2778 -21.1075 -21.1007
   -21.0994 -21.0923 -21.0884 -21.0799 -21.0503 -21.0409 -21.0249 -21.0160
    -8.4686  -8.1245  -7.5017  -7.2576  -6.8368  -6.2586  -5.9201  -5.7526
    -5.1510  -4.2931  -3.9601  -3.5441  -2.9629  -2.5461  -2.2599  -1.3452
    -0.7204  -0.5376  -0.3382  -0.1076   0.0507   0.3886   0.6143   0.7787
     0.9549   1.2104   1.3676   1.6820   1.8866   2.0614   2.2943   2.5900
     3.8911   3.9962   4.4905   4.6047   4.9162   5.0859   5.3323   5.4026
     5.6630   5.7693   6.1135   6.5471   6.6387   6.6922   6.9093   7.1006
     7.3267   7.4753   7.6540   7.7421   7.8886   8.0736

     the Fermi energy is     3.0018 ev

!    total energy              =   -2857.46658573 Ry
     estimated scf accuracy    <          2.1E-09 Ry
     smearing contrib. (-TS)   =      -0.00062172 Ry
     internal energy E=F+TS    =   -2857.46596400 Ry

     The total energy is F=E-TS. E is the sum of the following terms:
     one-electron contribution =   -8127.99105950 Ry
     hartree contribution      =    4165.04231105 Ry
     xc contribution           =    -697.34699313 Ry
     ewald contribution        =    1802.82977758 Ry

     convergence has been achieved in   7 iterations

     Forces acting on atoms (cartesian axes, Ry/au):

     atom    1 type  1   force =     0.00004463    0.00028942    0.00006815
     atom    2 type  1   force =     0.00021977   -0.00005794   -0.00065879
     atom    3 type  1   force =     0.00010748   -0.00008715    0.00044898
     atom    4 type  1   force =    -0.00011939   -0.00022068   -0.00014497
     atom    5 type  1   force =     0.00002531   -0.00008827    0.00015392
     atom    6 type  1   force =    -0.00003094   -0.00060462    0.00005429
     atom    7 type  1   force =    -0.00013893    0.00077670   -0.00063592
     atom    8 type  1   force =    -0.00011091   -0.00005036    0.00040849
     atom    9 type  1   force =    -0.00032062    0.00048489   -0.00034005
     atom   10 type  1   force =     0.00013557   -0.00051592    0.00030692
     atom   11 type  1   force =    -0.00003173    0.00029402   -0.00015784
     atom   12 type  1   force =     0.00000113    0.00041482   -0.00001887
     atom   13 type  1   force =     0.00017463   -0.00008416    0.00024256
     atom   14 type  1   force =    -0.00012258   -0.00006403    0.00043999
     atom   15 type  1   force =     0.00012438   -0.00018927    0.00030870
     atom   16 type  1   force =     0.00004221   -0.00029744   -0.00047554

     Total force =     0.002093     Total SCF correction =     0.000273
     SCF correction compared to forces is large: reduce conv_thr to get better values
     Energy error            =      1.3E-05 Ry
     Gradient error          =      7.8E-04 Ry/Bohr

     bfgs converged in   3 scf cycles and   2 bfgs steps
     (criteria: energy <  1.0E-04 Ry, force <  1.0E-03 Ry/Bohr)

     End of BFGS Geometry Optimization

     Final energy             =   -2857.4665857261 Ry

     File ./out/ge.bfgs deleted, as requested
Begin final coordinates

ATOMIC_POSITIONS (angstrom)
Ge            0.0159105211        1.1335130842        5.6531517590
Ge            2.0540305365       -0.0455980612        6.3744184096
Ge            2.0260719386        1.9664010976        8.0226933454
Ge           -0.0132089454        1.8780717434        9.4236614817
Ge           -0.0007494893       -0.1450549278       10.8749487233
Ge            2.0388215941       -0.1702067303       12.3377262748
Ge            2.0307303288        2.0249432273       13.6187283613
Ge           -0.0104300810        3.1720116664       14.4183803409
Ge            0.0029528447        3.5267638284        4.8910782100
Ge            2.0415035508        3.8813114103        6.3862700577
Ge            2.0406567056        6.0056457311        7.7702375167
Ge            0.0001469754        6.0788856980        9.2268581428
Ge            0.0027876192        4.0270364235       10.6554894350
Ge            2.0438424183        4.1122614024       12.0577989862
Ge            2.0339488110        5.9216860614       13.7867494145
Ge           -0.0060742201        5.5298898510       15.2753620752
End final coordinates

     Writing output data file ./out/ge.save/

     General routines

     Parallel routines

   This run was terminated on:   7:55:55  29Apr2025

   JOB DONE.