     Program PWSCF v.6.8 starts on  7May2025 at 21:10:16

     R & G space division:  proc/nbgrp/npool/nimage =      56

     Reading input from minus_e.in

     Current dimensions of program PWSCF are:
     Max number of different atomic species (ntypx) = 10
     Max number of k-points (npk) =  40000
     Max angular momentum in pseudopotentials (lmaxx) =  4
     Found symmetry operation: I + ( -0.5000 -0.5000  0.0000)
     This is a supercell, fractional translations are disabled

     Using Slab Decomposition

     bravais-lattice index     =            0
     lattice parameter (alat)  =      10.8848  a.u.
     unit-cell volume          =    1276.7305 (a.u.)^3
     number of atoms/cell      =            8
     number of atomic types    =            1
     number of electrons       =       112.00
     number of Kohn-Sham states=           67
     kinetic-energy cutoff     =      80.0000  Ry
     charge density cutoff     =     320.0000  Ry
     scf convergence threshold =      1.0E-08
     mixing beta               =       0.4000
     number of iterations used =            8  plain     mixing
     Exchange-correlation= PBE
                           (   1   4   3   4   0   0   0)

     celldm(1)=  10.884822  celldm(2)=   0.000000  celldm(3)=   0.000000
     celldm(4)=   0.000000  celldm(5)=   0.000000  celldm(6)=   0.000000

     crystal axes: (cart. coord. in units of alat)
               a(1) = (   0.990000   0.000000   0.000000 )
               a(2) = (   0.000000   1.000000   0.000000 )
               a(3) = (   0.000000   0.000000   1.000000 )

     reciprocal axes: (cart. coord. in units 2 pi/alat)
               b(1) = (  1.010101  0.000000  0.000000 )
               b(2) = (  0.000000  1.000000  0.000000 )
               b(3) = (  0.000000  0.000000  1.000000 )

     PseudoPot. # 1 for Ge read from file:
     ./Ge.upf
     MD5 check sum: 087fa14d6c89b52166990835c3b338da
     Pseudo is Norm-conserving + core correction, Zval = 14.0
     Generated using ONCVPSP code by D. R. Hamann
     Using radial grid of 1560 points,  6 beta functions with:
                l(1) =   0
                l(2) =   0
                l(3) =   1
                l(4) =   1
                l(5) =   2
                l(6) =   2

     atomic species   valence    mass     pseudopotential
        Ge            14.00    72.63000     Ge( 1.00)

     No symmetry found

   Cartesian axes

     site n.     atom                  positions (alat units)
         1           Ge  tau(   1) = (   0.0000000   0.0000000   0.0000000  )
         2           Ge  tau(   2) = (   0.4950000   0.5000000   0.0000000  )
         3           Ge  tau(   3) = (   0.4950000   0.0000000   0.5000000  )
         4           Ge  tau(   4) = (   0.0000000   0.5000000   0.5000000  )
         5           Ge  tau(   5) = (   0.2475000   0.2500000   0.2500000  )
         6           Ge  tau(   6) = (   0.7425000   0.7500000   0.2500000  )
         7           Ge  tau(   7) = (   0.7425000   0.2500000   0.7500000  )
         8           Ge  tau(   8) = (   0.2475000   0.7500000   0.7500000  )

     number of k points=    36  Gaussian smearing, width (Ry)=  0.0100
                       cart. coord. in units 2pi/alat
        k(    1) = (   0.0000000   0.0000000   0.0000000), wk =   0.0312500
        k(    2) = (   0.0000000   0.0000000   0.2500000), wk =   0.0625000
        k(    3) = (   0.0000000   0.0000000  -0.5000000), wk =   0.0312500
        k(    4) = (   0.0000000   0.2500000   0.0000000), wk =   0.0625000
        k(    5) = (   0.0000000   0.2500000   0.2500000), wk =   0.0625000
        k(    6) = (   0.0000000   0.2500000  -0.5000000), wk =   0.0625000
        k(    7) = (   0.0000000   0.2500000  -0.2500000), wk =   0.0625000
        k(    8) = (   0.0000000  -0.5000000   0.0000000), wk =   0.0312500
        k(    9) = (   0.0000000  -0.5000000   0.2500000), wk =   0.0625000
        k(   10) = (   0.0000000  -0.5000000  -0.5000000), wk =   0.0312500
        k(   11) = (   0.2525253   0.0000000   0.0000000), wk =   0.0625000
        k(   12) = (   0.2525253   0.0000000   0.2500000), wk =   0.0625000
        k(   13) = (   0.2525253   0.0000000  -0.5000000), wk =   0.0625000
        k(   14) = (   0.2525253   0.0000000  -0.2500000), wk =   0.0625000
        k(   15) = (   0.2525253   0.2500000   0.0000000), wk =   0.0625000
        k(   16) = (   0.2525253   0.2500000   0.2500000), wk =   0.0625000
        k(   17) = (   0.2525253   0.2500000  -0.5000000), wk =   0.0625000
        k(   18) = (   0.2525253   0.2500000  -0.2500000), wk =   0.0625000
        k(   19) = (   0.2525253  -0.5000000   0.0000000), wk =   0.0625000
        k(   20) = (   0.2525253  -0.5000000   0.2500000), wk =   0.0625000
        k(   21) = (   0.2525253  -0.5000000  -0.5000000), wk =   0.0625000
        k(   22) = (   0.2525253  -0.5000000  -0.2500000), wk =   0.0625000
        k(   23) = (   0.2525253  -0.2500000   0.0000000), wk =   0.0625000
        k(   24) = (   0.2525253  -0.2500000   0.2500000), wk =   0.0625000
        k(   25) = (   0.2525253  -0.2500000  -0.5000000), wk =   0.0625000
        k(   26) = (   0.2525253  -0.2500000  -0.2500000), wk =   0.0625000
        k(   27) = (  -0.5050505   0.0000000   0.0000000), wk =   0.0312500
        k(   28) = (  -0.5050505   0.0000000   0.2500000), wk =   0.0625000
        k(   29) = (  -0.5050505   0.0000000  -0.5000000), wk =   0.0312500
        k(   30) = (  -0.5050505   0.2500000   0.0000000), wk =   0.0625000
        k(   31) = (  -0.5050505   0.2500000   0.2500000), wk =   0.0625000
        k(   32) = (  -0.5050505   0.2500000  -0.5000000), wk =   0.0625000
        k(   33) = (  -0.5050505   0.2500000  -0.2500000), wk =   0.0625000
        k(   34) = (  -0.5050505  -0.5000000   0.0000000), wk =   0.0312500
        k(   35) = (  -0.5050505  -0.5000000   0.2500000), wk =   0.0625000
        k(   36) = (  -0.5050505  -0.5000000  -0.5000000), wk =   0.0312500

     Initial potential from superposition of free atoms

     starting charge  111.99342, renormalised to  112.00000
     Starting wfcs are   72 randomized atomic wfcs

     Self-consistent Calculation

     iteration #  1     ecut=    80.00 Ry     beta= 0.40
     Davidson diagonalization with overlap
     ethr =  1.00E-02,  avg # of iterations =  3.6

     Threshold (ethr) on eigenvalues was too large:
     Diagonalizing with lowered threshold

     Davidson diagonalization with overlap
     ethr =  1.02E-04,  avg # of iterations =  5.7

     total energy              =   -1429.14137890 Ry
     estimated scf accuracy    <       0.12703569 Ry

[...]

     iteration #  4     ecut=    80.00 Ry     beta= 0.40
     Davidson diagonalization with overlap
     c_bands:  1 eigenvalues not converged
     c_bands:  1 eigenvalues not converged
     c_bands:  1 eigenvalues not converged
     ethr =  4.01E-07,  avg # of iterations =  9.6

[...]

     total energy              =   -1429.13866737 Ry
     estimated scf accuracy    <       0.00000004 Ry

     iteration #  9     ecut=    80.00 Ry     beta= 0.40
     Davidson diagonalization with overlap
     ethr =  3.86E-11,  avg # of iterations =  2.0

     End of self-consistent calculation

          k = 0.0000 0.0000 0.0000 ( 15451 PWs)   bands (ev):

   -15.8838 -15.8838 -15.8838 -15.8838 -15.8813 -15.8813 -15.8540 -15.8516
   -15.8516 -15.8218 -15.8208 -15.8068 -15.8068 -15.8068 -15.8068 -15.8040
   -15.8040 -15.7206 -15.7206 -15.7206 -15.7206 -15.7200 -15.7200 -15.6709
   -15.6709 -15.6677 -15.6677 -15.6677 -15.6677 -15.6336 -15.6336 -15.6299
   -15.6253 -15.6230 -15.5866 -15.5866 -15.5837 -15.5837 -15.5837 -15.5837
    -3.5012   0.2039   0.2039   0.2039   0.2039   0.2489   0.2489   5.9781
     5.9781   6.0456   6.0456   6.0456   6.0456   8.5840   8.9206   8.9206
     8.9953   9.6982   9.6982   9.7745   9.7745   9.7745   9.7745  11.4471
    11.4960  11.4960  15.2751

[...]

          k = 0.2525-0.2500-0.2500 ( 15424 PWs)   bands (ev):

[...]

          k =-0.5051 0.0000 0.0000 ( 15446 PWs)   bands (ev):

[...]

          k =-0.5051-0.5000-0.5000 ( 15328 PWs)   bands (ev):

   -15.8757 -15.8757 -15.8757 -15.8757 -15.8731 -15.8731 -15.8731 -15.8731
   -15.8365 -15.8365 -15.8365 -15.8365 -15.7840 -15.7840 -15.7840 -15.7840
   -15.7838 -15.7838 -15.7838 -15.7838 -15.6671 -15.6671 -15.6671 -15.6671
   -15.6654 -15.6654 -15.6654 -15.6654 -15.6504 -15.6504 -15.6504 -15.6504
   -15.5986 -15.5986 -15.5986 -15.5986 -15.5956 -15.5956 -15.5956 -15.5956
    -1.5176  -1.5176  -1.5176  -1.5176   1.5414   1.5414   1.5414   1.5414
     7.5651   7.5651   7.5651   7.5651   7.6508   7.6508   7.6508   7.6508
     8.9965   8.9965   8.9965   8.9965  12.6346  12.6346  12.6346  12.6352
    12.6935  12.6935  12.6935

     the Fermi energy is     8.9174 ev

!    total energy              =   -1429.13866738 Ry
     estimated scf accuracy    <          2.4E-09 Ry
     smearing contrib. (-TS)   =      -0.00049445 Ry
     internal energy E=F+TS    =   -1429.13817293 Ry

     The total energy is F=E-TS. E is the sum of the following terms:
     one-electron contribution =    -751.27571959 Ry
     hartree contribution      =     449.84561841 Ry
     xc contribution           =    -349.10333342 Ry
     ewald contribution        =    -778.60473831 Ry

     convergence has been achieved in   9 iterations

     Forces acting on atoms (cartesian axes, Ry/au):

     atom    1 type  1   force =     0.00000014   -0.00000007    0.00000015
     atom    2 type  1   force =     0.00000008   -0.00000006    0.00000026
     atom    3 type  1   force =     0.00000028    0.00000001   -0.00000042
     atom    4 type  1   force =     0.00000002   -0.00000012   -0.00000019
     atom    5 type  1   force =    -0.00000011    0.00000008    0.00000003
     atom    6 type  1   force =    -0.00000021    0.00000012    0.00000002
     atom    7 type  1   force =    -0.00000029   -0.00000021    0.00000007
     atom    8 type  1   force =     0.00000009    0.00000027    0.00000006

     Total force =     0.000001     Total SCF correction =     0.000017
     SCF correction compared to forces is large: reduce conv_thr to get better values

     Computing stress (Cartesian axis) and pressure

          total   stress  (Ry/bohr**3)                   (kbar)     P=        8.63
   0.00008712   0.00000000   0.00000000           12.82        0.00        0.00
   0.00000000   0.00004441   0.00000000            0.00        6.53        0.00
   0.00000000   0.00000000   0.00004441            0.00        0.00        6.53

     Writing output data file ./Ge_out/Ge_scf.save/

     General routines

     Parallel routines

   This run was terminated on:  21:11: 1   7May2025

   JOB DONE.