     Program PWSCF v.6.8 starts on  7May2025 at 21:11: 2

     R & G space division:  proc/nbgrp/npool/nimage =      56

     Reading input from plus_e.in

     Current dimensions of program PWSCF are:
     Max number of different atomic species (ntypx) = 10
     Max number of k-points (npk) =  40000
     Max angular momentum in pseudopotentials (lmaxx) =  4
     Found symmetry operation: I + ( -0.5000 -0.5000  0.0000)
     This is a supercell, fractional translations are disabled

     Using Slab Decomposition

     bravais-lattice index     =            0
     lattice parameter (alat)  =      10.8848  a.u.
     unit-cell volume          =    1302.5231 (a.u.)^3
     number of atoms/cell      =            8
     number of atomic types    =            1
     number of electrons       =       112.00
     number of Kohn-Sham states=           67
     kinetic-energy cutoff     =      80.0000  Ry
     charge density cutoff     =     320.0000  Ry
     scf convergence threshold =      1.0E-08
     mixing beta               =       0.4000
     number of iterations used =            8  plain     mixing
     Exchange-correlation= PBE
                           (   1   4   3   4   0   0   0)

     celldm(1)=  10.884822  celldm(2)=   0.000000  celldm(3)=   0.000000
     celldm(4)=   0.000000  celldm(5)=   0.000000  celldm(6)=   0.000000

     crystal axes: (cart. coord. in units of alat)
               a(1) = (   1.010000   0.000000   0.000000 )
               a(2) = (   0.000000   1.000000   0.000000 )
               a(3) = (   0.000000   0.000000   1.000000 )

     reciprocal axes: (cart. coord. in units 2 pi/alat)
               b(1) = (  0.990099  0.000000  0.000000 )
               b(2) = (  0.000000  1.000000  0.000000 )
               b(3) = (  0.000000  0.000000  1.000000 )

     PseudoPot. # 1 for Ge read from file:
     ./Ge.upf
     MD5 check sum: 087fa14d6c89b52166990835c3b338da
     Pseudo is Norm-conserving + core correction, Zval = 14.0
     Generated using ONCVPSP code by D. R. Hamann
     Using radial grid of 1560 points,  6 beta functions with:
                l(1) =   0
                l(2) =   0
                l(3) =   1
                l(4) =   1
                l(5) =   2
                l(6) =   2

     atomic species   valence    mass     pseudopotential
        Ge            14.00    72.63000     Ge( 1.00)

     No symmetry found

   Cartesian axes

     site n.     atom                  positions (alat units)
         1           Ge  tau(   1) = (   0.0000000   0.0000000   0.0000000  )
         2           Ge  tau(   2) = (   0.5050000   0.5000000   0.0000000  )
         3           Ge  tau(   3) = (   0.5050000   0.0000000   0.5000000  )
         4           Ge  tau(   4) = (   0.0000000   0.5000000   0.5000000  )
         5           Ge  tau(   5) = (   0.2525000   0.2500000   0.2500000  )
         6           Ge  tau(   6) = (   0.7575000   0.7500000   0.2500000  )
         7           Ge  tau(   7) = (   0.7575000   0.2500000   0.7500000  )
         8           Ge  tau(   8) = (   0.2525000   0.7500000   0.7500000  )

     number of k points=    36  Gaussian smearing, width (Ry)=  0.0100
                       cart. coord. in units 2pi/alat
        k(    1) = (   0.0000000   0.0000000   0.0000000), wk =   0.0312500
        k(    2) = (   0.0000000   0.0000000   0.2500000), wk =   0.0625000
        k(    3) = (   0.0000000   0.0000000  -0.5000000), wk =   0.0312500
        k(    4) = (   0.0000000   0.2500000   0.0000000), wk =   0.0625000
        k(    5) = (   0.0000000   0.2500000   0.2500000), wk =   0.0625000
        k(    6) = (   0.0000000   0.2500000  -0.5000000), wk =   0.0625000
        k(    7) = (   0.0000000   0.2500000  -0.2500000), wk =   0.0625000
        k(    8) = (   0.0000000  -0.5000000   0.0000000), wk =   0.0312500
        k(    9) = (   0.0000000  -0.5000000   0.2500000), wk =   0.0625000
        k(   10) = (   0.0000000  -0.5000000  -0.5000000), wk =   0.0312500
        k(   11) = (   0.2475248   0.0000000   0.0000000), wk =   0.0625000
        k(   12) = (   0.2475248   0.0000000   0.2500000), wk =   0.0625000
        k(   13) = (   0.2475248   0.0000000  -0.5000000), wk =   0.0625000
        k(   14) = (   0.2475248   0.0000000  -0.2500000), wk =   0.0625000
        k(   15) = (   0.2475248   0.2500000   0.0000000), wk =   0.0625000
        k(   16) = (   0.2475248   0.2500000   0.2500000), wk =   0.0625000
        k(   17) = (   0.2475248   0.2500000  -0.5000000), wk =   0.0625000
        k(   18) = (   0.2475248   0.2500000  -0.2500000), wk =   0.0625000
        k(   19) = (   0.2475248  -0.5000000   0.0000000), wk =   0.0625000
        k(   20) = (   0.2475248  -0.5000000   0.2500000), wk =   0.0625000
        k(   21) = (   0.2475248  -0.5000000  -0.5000000), wk =   0.0625000
        k(   22) = (   0.2475248  -0.5000000  -0.2500000), wk =   0.0625000
        k(   23) = (   0.2475248  -0.2500000   0.0000000), wk =   0.0625000
        k(   24) = (   0.2475248  -0.2500000   0.2500000), wk =   0.0625000
        k(   25) = (   0.2475248  -0.2500000  -0.5000000), wk =   0.0625000
        k(   26) = (   0.2475248  -0.2500000  -0.2500000), wk =   0.0625000
        k(   27) = (  -0.4950495   0.0000000   0.0000000), wk =   0.0312500
        k(   28) = (  -0.4950495   0.0000000   0.2500000), wk =   0.0625000
        k(   29) = (  -0.4950495   0.0000000  -0.5000000), wk =   0.0312500
        k(   30) = (  -0.4950495   0.2500000   0.0000000), wk =   0.0625000
        k(   31) = (  -0.4950495   0.2500000   0.2500000), wk =   0.0625000
        k(   32) = (  -0.4950495   0.2500000  -0.5000000), wk =   0.0625000
        k(   33) = (  -0.4950495   0.2500000  -0.2500000), wk =   0.0625000
        k(   34) = (  -0.4950495  -0.5000000   0.0000000), wk =   0.0312500
        k(   35) = (  -0.4950495  -0.5000000   0.2500000), wk =   0.0625000
        k(   36) = (  -0.4950495  -0.5000000  -0.5000000), wk =   0.0312500

     Initial potential from superposition of free atoms

     starting charge  111.99342, renormalised to  112.00000
     Starting wfcs are   72 randomized atomic wfcs

     Self-consistent Calculation

     iteration #  1     ecut=    80.00 Ry     beta= 0.40
     Davidson diagonalization with overlap
     ethr =  1.00E-02,  avg # of iterations =  3.8

     Threshold (ethr) on eigenvalues was too large:
     Diagonalizing with lowered threshold

     Davidson diagonalization with overlap
     ethr =  9.88E-05,  avg # of iterations =  5.7

     total energy              =   -1429.14161902 Ry
     estimated scf accuracy    <       0.12259177 Ry

[...]

     iteration #  4     ecut=    80.00 Ry     beta= 0.40
     Davidson diagonalization with overlap
     c_bands:  1 eigenvalues not converged
     c_bands:  1 eigenvalues not converged
     ethr =  3.89E-07,  avg # of iterations =  8.7

[...]

     iteration #  5     ecut=    80.00 Ry     beta= 0.40
     Davidson diagonalization with overlap
     c_bands:  1 eigenvalues not converged
     c_bands:  1 eigenvalues not converged
     ethr =  4.58E-08,  avg # of iterations =  3.0

[...]

     total energy              =   -1429.13911521 Ry
     estimated scf accuracy    <       0.00000005 Ry

     iteration #  9     ecut=    80.00 Ry     beta= 0.40
     Davidson diagonalization with overlap
     ethr =  4.59E-11,  avg # of iterations =  2.3

     End of self-consistent calculation

          k = 0.0000 0.0000 0.0000 ( 15651 PWs)   bands (ev):

   -16.1284 -16.1284 -16.1261 -16.1261 -16.1261 -16.1261 -16.0984 -16.0984
   -16.0963 -16.0685 -16.0676 -16.0548 -16.0548 -16.0522 -16.0522 -16.0522
   -16.0522 -15.9733 -15.9733 -15.9726 -15.9726 -15.9726 -15.9726 -15.9247
   -15.9247 -15.9247 -15.9247 -15.9218 -15.9218 -15.8908 -15.8874 -15.8874
   -15.8830 -15.8808 -15.8445 -15.8445 -15.8445 -15.8445 -15.8418 -15.8418
    -3.6282  -0.0111  -0.0111   0.0322   0.0322   0.0322   0.0322   5.7967
     5.7967   5.7967   5.7967   5.8622   5.8622   8.1377   8.6252   8.6997
     8.6997   9.4757   9.4757   9.4757   9.4757   9.5500   9.5500  11.1831
    11.1831  11.2312  14.9557

[...]

          k = 0.2475-0.2500-0.2500 ( 15723 PWs)   bands (ev):

[...]

          k =-0.4950 0.0000 0.0000 ( 15728 PWs)   bands (ev):

[...]

          k =-0.4950-0.5000-0.5000 ( 15616 PWs)   bands (ev):

   -16.1198 -16.1198 -16.1198 -16.1198 -16.1174 -16.1174 -16.1174 -16.1174
   -16.0824 -16.0824 -16.0824 -16.0824 -16.0327 -16.0327 -16.0327 -16.0327
   -16.0326 -16.0326 -16.0326 -16.0326 -15.9223 -15.9222 -15.9222 -15.9222
   -15.9210 -15.9210 -15.9210 -15.9210 -15.9057 -15.9057 -15.9057 -15.9057
   -15.8569 -15.8569 -15.8569 -15.8569 -15.8540 -15.8540 -15.8540 -15.8540
    -1.6912  -1.6912  -1.6912  -1.6912   1.3531   1.3531   1.3531   1.3531
     7.3243   7.3243   7.3243   7.3243   7.4086   7.4086   7.4086   7.4086
     8.6695   8.6695   8.6695   8.6695  12.3544  12.3544  12.3544  12.3576
    12.4069  12.4069  12.4069

     the Fermi energy is     8.6166 ev

!    total energy              =   -1429.13911522 Ry
     estimated scf accuracy    <          2.7E-09 Ry
     smearing contrib. (-TS)   =      -0.00052336 Ry
     internal energy E=F+TS    =   -1429.13859186 Ry

     The total energy is F=E-TS. E is the sum of the following terms:
     one-electron contribution =    -759.70641764 Ry
     hartree contribution      =     453.02252699 Ry
     xc contribution           =    -349.02380939 Ry
     ewald contribution        =    -773.43089181 Ry

     convergence has been achieved in   9 iterations

     Forces acting on atoms (cartesian axes, Ry/au):

     atom    1 type  1   force =    -0.00000031   -0.00000005    0.00000043
     atom    2 type  1   force =     0.00000050    0.00000006    0.00000044
     atom    3 type  1   force =     0.00000024    0.00000001   -0.00000023
     atom    4 type  1   force =    -0.00000052   -0.00000003   -0.00000040
     atom    5 type  1   force =     0.00000077   -0.00000053   -0.00000031
     atom    6 type  1   force =    -0.00000104    0.00000053    0.00000002
     atom    7 type  1   force =    -0.00000050   -0.00000051   -0.00000007
     atom    8 type  1   force =     0.00000086    0.00000052    0.00000013

     Total force =     0.000002     Total SCF correction =     0.000017
     SCF correction compared to forces is large: reduce conv_thr to get better values

     Computing stress (Cartesian axis) and pressure

          total   stress  (Ry/bohr**3)                   (kbar)     P=       -3.32
  -0.00005119  -0.00000000   0.00000000           -7.53       -0.00        0.00
  -0.00000000  -0.00000830   0.00000000           -0.00       -1.22        0.00
   0.00000000   0.00000000  -0.00000830            0.00        0.00       -1.22

     Writing output data file ./Ge_out/Ge_scf.save/

     General routines

     Parallel routines

   This run was terminated on:  21:11:47   7May2025

   JOB DONE.