     Program PWSCF v.6.8 starts on 19May2025 at 15:34: 0

     R & G space division:  proc/nbgrp/npool/nimage =       8

     Reading input from scf_efield_-x.in
Warning: card &CELL ignored
Warning: card    CELL_DYNAMICS    = 'NONE' ignored
Warning: card / ignored
Warning: card &FCP ignored
Warning: card / ignored
Warning: card &RISM ignored
Warning: card / ignored

     Current dimensions of program PWSCF are:
     Max number of different atomic species (ntypx) = 10
     Max number of k-points (npk) =  40000
     Max angular momentum in pseudopotentials (lmaxx) =  4

     Using Slab Decomposition

     bravais-lattice index     =            0
     lattice parameter (alat)  =       5.4894  a.u.
     unit-cell volume          =     392.0941 (a.u.)^3
     number of atoms/cell      =            6
     number of atomic types    =            2
     number of electrons       =        52.00
     number of Kohn-Sham states=           26
     kinetic-energy cutoff     =      60.0000  Ry
     charge density cutoff     =     240.0000  Ry
     scf convergence threshold =      1.0E-08
     mixing beta               =       0.7000
     number of iterations used =            8  plain     mixing
     Exchange-correlation= PBE
                           (   1   4   3   4   0   0   0)

     Using Berry phase electric field
     In a.u.(Ry)  cartesian system of reference
       -0.0010000000
        0.0000000000
        0.0000000000
     In a.u.(Ry)  crystal system of reference
       -0.0010000000
       -0.0000000000
       -0.0000000000
     Number of iterative cycles:   1

     celldm(1)=   5.489440  celldm(2)=   0.000000  celldm(3)=   0.000000
     celldm(4)=   0.000000  celldm(5)=   0.000000  celldm(6)=   0.000000

     crystal axes: (cart. coord. in units of alat)
               a(1) = (   1.000000   0.000000   0.000000 )
               a(2) = (   0.000000   1.539583  -0.000000 )
               a(3) = (   0.000000  -0.000000   1.539583 )

     reciprocal axes: (cart. coord. in units 2 pi/alat)
               b(1) = (  1.000000 -0.000000 -0.000000 )
               b(2) = ( -0.000000  0.649527  0.000000 )
               b(3) = ( -0.000000  0.000000  0.649527 )

     PseudoPot. # 1 for Ge read from file:
     ./Ge.upf
     MD5 check sum: 087fa14d6c89b52166990835c3b338da
     Pseudo is Norm-conserving + core correction, Zval = 14.0
     Generated using ONCVPSP code by D. R. Hamann
     Using radial grid of 1560 points,  6 beta functions with:
                l(1) =   0
                l(2) =   0
                l(3) =   1
                l(4) =   1
                l(5) =   2
                l(6) =   2

     PseudoPot. # 2 for O  read from file:
     ./O.upf
     MD5 check sum: 9db02a5ece9d56b81b65a73f8163743d
     Pseudo is Norm-conserving + core correction, Zval =  6.0
     Generated using ONCVPSP code by D. R. Hamann
     Using radial grid of  936 points,  5 beta functions with:
                l(1) =   0
                l(2) =   0
                l(3) =   1
                l(4) =   1
                l(5) =   2

     atomic species   valence    mass     pseudopotential
        Ge            14.00    72.63000     Ge( 1.00)
        O              6.00    15.99900     O ( 1.00)

     No symmetry found

   Cartesian axes

     site n.     atom                  positions (alat units)
         1           Ge  tau(   1) = (   0.5005378   0.7701227   0.7701227  )
         2           Ge  tau(   2) = (   0.0006032   0.0003332   0.0003332  )
         3           O   tau(   3) = (   0.0005626   1.0674164   1.0674164  )
         4           O   tau(   4) = (   0.5005694   1.2426816   0.2976664  )
         5           O   tau(   5) = (   0.0005626   0.4728529   0.4728529  )
         6           O   tau(   6) = (   0.5005694   0.2976664   1.2426816  )

     number of k points=    96
                       cart. coord. in units 2pi/alat
        k(    1) = (   0.0000000   0.0000000   0.0000000), wk =   0.0208333
        k(    2) = (  -0.0000000   0.0000000   0.1623816), wk =   0.0208333
        k(    3) = (  -0.0000000   0.0000000   0.3247633), wk =   0.0208333
        k(    4) = (  -0.0000000   0.0000000   0.4871449), wk =   0.0208333
        k(    5) = (  -0.0000000   0.1623816   0.0000000), wk =   0.0208333
        k(    6) = (  -0.0000000   0.1623816   0.1623816), wk =   0.0208333
        k(    7) = (  -0.0000000   0.1623817   0.3247633), wk =   0.0208333
        k(    8) = (  -0.0000000   0.1623817   0.4871449), wk =   0.0208333
        k(    9) = (  -0.0000000   0.3247633   0.0000000), wk =   0.0208333
        k(   10) = (  -0.0000000   0.3247633   0.1623817), wk =   0.0208333
        k(   11) = (  -0.0000000   0.3247633   0.3247633), wk =   0.0208333
        k(   12) = (  -0.0000000   0.3247633   0.4871449), wk =   0.0208333
        k(   13) = (  -0.0000000   0.4871449   0.0000000), wk =   0.0208333
        k(   14) = (  -0.0000000   0.4871449   0.1623817), wk =   0.0208333
        k(   15) = (  -0.0000000   0.4871449   0.3247633), wk =   0.0208333
        k(   16) = (  -0.0000000   0.4871449   0.4871449), wk =   0.0208333
        k(   17) = (   0.1666667  -0.0000000  -0.0000000), wk =   0.0208333
        k(   18) = (   0.1666667   0.0000000   0.1623816), wk =   0.0208333
        k(   19) = (   0.1666667   0.0000000   0.3247633), wk =   0.0208333
        k(   20) = (   0.1666667   0.0000000   0.4871449), wk =   0.0208333
        k(   21) = (   0.1666667   0.1623816   0.0000000), wk =   0.0208333
        k(   22) = (   0.1666667   0.1623816   0.1623816), wk =   0.0208333
        k(   23) = (   0.1666667   0.1623816   0.3247633), wk =   0.0208333
        k(   24) = (   0.1666667   0.1623817   0.4871449), wk =   0.0208333
        k(   25) = (   0.1666667   0.3247633   0.0000000), wk =   0.0208333
        k(   26) = (   0.1666667   0.3247633   0.1623816), wk =   0.0208333
        k(   27) = (   0.1666667   0.3247633   0.3247633), wk =   0.0208333
        k(   28) = (   0.1666667   0.3247633   0.4871449), wk =   0.0208333
        k(   29) = (   0.1666667   0.4871449   0.0000000), wk =   0.0208333
        k(   30) = (   0.1666667   0.4871449   0.1623817), wk =   0.0208333
        k(   31) = (   0.1666667   0.4871449   0.3247633), wk =   0.0208333
        k(   32) = (   0.1666666   0.4871449   0.4871449), wk =   0.0208333
        k(   33) = (   0.3333333  -0.0000000  -0.0000000), wk =   0.0208333
        k(   34) = (   0.3333333   0.0000000   0.1623816), wk =   0.0208333
        k(   35) = (   0.3333333   0.0000000   0.3247633), wk =   0.0208333
        k(   36) = (   0.3333333   0.0000000   0.4871449), wk =   0.0208333
        k(   37) = (   0.3333333   0.1623816   0.0000000), wk =   0.0208333
        k(   38) = (   0.3333333   0.1623816   0.1623816), wk =   0.0208333
        k(   39) = (   0.3333333   0.1623816   0.3247633), wk =   0.0208333
        k(   40) = (   0.3333333   0.1623817   0.4871449), wk =   0.0208333
        k(   41) = (   0.3333333   0.3247633   0.0000000), wk =   0.0208333
        k(   42) = (   0.3333333   0.3247633   0.1623816), wk =   0.0208333
        k(   43) = (   0.3333333   0.3247633   0.3247633), wk =   0.0208333
        k(   44) = (   0.3333333   0.3247633   0.4871449), wk =   0.0208333
        k(   45) = (   0.3333333   0.4871449   0.0000000), wk =   0.0208333
        k(   46) = (   0.3333333   0.4871449   0.1623817), wk =   0.0208333
        k(   47) = (   0.3333333   0.4871449   0.3247633), wk =   0.0208333
        k(   48) = (   0.3333333   0.4871449   0.4871449), wk =   0.0208333
        k(   49) = (   0.5000000  -0.0000000  -0.0000000), wk =   0.0208333
        k(   50) = (   0.5000000  -0.0000000   0.1623816), wk =   0.0208333
        k(   51) = (   0.5000000   0.0000000   0.3247633), wk =   0.0208333
        k(   52) = (   0.5000000   0.0000000   0.4871449), wk =   0.0208333
        k(   53) = (   0.5000000   0.1623816  -0.0000000), wk =   0.0208333
        k(   54) = (   0.5000000   0.1623816   0.1623816), wk =   0.0208333
        k(   55) = (   0.5000000   0.1623816   0.3247633), wk =   0.0208333
        k(   56) = (   0.5000000   0.1623817   0.4871449), wk =   0.0208333
        k(   57) = (   0.5000000   0.3247633   0.0000000), wk =   0.0208333
        k(   58) = (   0.5000000   0.3247633   0.1623816), wk =   0.0208333
        k(   59) = (   0.5000000   0.3247633   0.3247633), wk =   0.0208333
        k(   60) = (   0.5000000   0.3247633   0.4871449), wk =   0.0208333
[...]
        k(   82) = (   0.8333333  -0.0000000   0.1623816), wk =   0.0208333
        k(   83) = (   0.8333333   0.0000000   0.3247632), wk =   0.0208333
        k(   84) = (   0.8333333   0.0000000   0.4871449), wk =   0.0208333
        k(   85) = (   0.8333333   0.1623816  -0.0000000), wk =   0.0208333
        k(   86) = (   0.8333333   0.1623816   0.1623816), wk =   0.0208333
        k(   87) = (   0.8333333   0.1623816   0.3247633), wk =   0.0208333
        k(   88) = (   0.8333333   0.1623816   0.4871449), wk =   0.0208333
        k(   89) = (   0.8333333   0.3247632   0.0000000), wk =   0.0208333
        k(   90) = (   0.8333333   0.3247633   0.1623816), wk =   0.0208333
        k(   91) = (   0.8333333   0.3247633   0.3247633), wk =   0.0208333
        k(   92) = (   0.8333333   0.3247633   0.4871449), wk =   0.0208333
        k(   93) = (   0.8333333   0.4871449   0.0000000), wk =   0.0208333
        k(   94) = (   0.8333333   0.4871449   0.1623816), wk =   0.0208333
        k(   95) = (   0.8333333   0.4871449   0.3247633), wk =   0.0208333
        k(   96) = (   0.8333333   0.4871449   0.4871449), wk =   0.0208333

     Check: negative core charge=   -0.000052
     Cannot read rho : file not found

     Initial potential from superposition of free atoms

     starting charge   51.99834, renormalised to   52.00000
     Starting wfcs are   34 randomized atomic wfcs

     Self-consistent Calculation

     iteration #  1     ecut=    60.00 Ry     beta= 0.70
     Davidson diagonalization with overlap
     ethr =  1.00E-05,  avg # of iterations =  7.0

     Expectation value of exp(iGx): (-0.237452345450385,2.921019478937487E-002)
   1.00000000000000
     Electronic Dipole per cell (Ry a.u.)   7.46077553750473
     Ionic Dipole per cell (Ry a.u.)   101.151577625544

[...]

     Expectation value of exp(iGx): (-0.421337711438908,1.570715236967247E-002)
   1.53958300451311
     Electronic Dipole per cell (Ry a.u.)   11.8103899160783
     Ionic Dipole per cell (Ry a.u.)   227.230714072861
Electronic Dipole on Cartesian axes
           1   7.46077598644175
           2   11.8106358736429
           3   11.8103893837078
Ionic Dipole on Cartesian axes
           1   101.151577625544
           2   227.230714072861
           3   227.230714072861

     total energy              =    -489.23741961 Ry
     estimated scf accuracy    <       1.20860527 Ry

[...]

     total energy              =    -489.74080664 Ry
     estimated scf accuracy    <       0.00000003 Ry

     iteration # 11     ecut=    60.00 Ry     beta= 0.70
     Davidson diagonalization with overlap
     ethr =  5.25E-11,  avg # of iterations =  4.8

[...]

     Expectation value of exp(iGx): (-0.368880495826714,1.371023142568263E-002)
   1.53958300451311
     Electronic Dipole per cell (Ry a.u.)   11.8108158500434
     Ionic Dipole per cell (Ry a.u.)   227.230714072861

     Expectation value of exp(iGx): (-0.368880503334796,1.371014648934631E-002)
   1.53958300451311
     Electronic Dipole per cell (Ry a.u.)   11.8108167277090
     Ionic Dipole per cell (Ry a.u.)   227.230714072861
Electronic Dipole on Cartesian axes
           1   7.42248793603820
           2   11.8108153168980
           3   11.8108161945636
Ionic Dipole on Cartesian axes
           1   101.151577625544
           2   227.230714072861
           3   227.230714072861

     End of self-consistent calculation

          k = 0.0000 0.0000 0.0000 (  3065 PWs)   bands (ev):

   -14.2932 -14.1202 -13.9848 -13.9827 -13.9827 -13.9268 -13.9123 -13.8850
   -13.8850 -13.8831 -10.2577  -7.4322  -7.4322  -6.7328   0.4408   5.2213
     5.2213   5.7515   6.1907   7.1751   8.0735   8.5179   8.5179   9.7112
     9.7112  10.4938

          k =-0.0000 0.0000 0.1624 (  3089 PWs)   bands (ev):

[...]

          k =-0.0000 0.4871 0.4871 (  3093 PWs)   bands (ev):

[...]

          k = 0.8333 0.4871 0.4871 (  3076 PWs)   bands (ev):

   -14.2014 -14.1181 -14.0537 -14.0381 -13.9627 -13.9411 -13.9108 -13.9045
   -13.9007 -13.8869  -9.4669  -8.0646  -7.2850  -6.5832   1.4601   3.4778
     5.3575   5.6076   6.0276   6.6628   7.3193   7.9031   8.4269   8.8765
     9.4312   9.9503

     highest occupied level (ev):    10.4938

!    total energy              =    -489.74080673 Ry
     estimated scf accuracy    <          2.1E-09 Ry

     The total energy is the sum of the following terms:
     one-electron contribution =    -162.97673470 Ry
     hartree contribution      =     122.82656206 Ry
     xc contribution           =    -121.43926262 Ry
     ewald contribution        =    -328.25994553 Ry

     convergence has been achieved in  11 iterations

     Forces acting on atoms (cartesian axes, Ry/au):

     atom    1 type  1   force =    -0.00634507    0.00001684    0.00001672
     atom    2 type  1   force =    -0.00644135    0.00001126    0.00001140
     atom    3 type  2   force =     0.00318581   -0.00085069   -0.00085065
     atom    4 type  2   force =     0.00320745    0.00083220   -0.00088292
     atom    5 type  2   force =     0.00318578    0.00087326    0.00087330
     atom    6 type  2   force =     0.00320739   -0.00088287    0.00083215

     Total force =     0.011338     Total SCF correction =     0.000030

     General routines

     Parallel routines

     Electric-field routines

   This run was terminated on:  15:34:50  19May2025

   JOB DONE.