     Program PWSCF v.6.8 starts on 19May2025 at 15:32:19

     R & G space division:  proc/nbgrp/npool/nimage =       8

     Reading input from vc_relax.in
Warning: card &FCP ignored
Warning: card / ignored
Warning: card &RISM ignored
Warning: card / ignored

     Current dimensions of program PWSCF are:
     Max number of different atomic species (ntypx) = 10
     Max number of k-points (npk) =  40000
     Max angular momentum in pseudopotentials (lmaxx) =  4
     Message from routine setup:
     using ibrav=0 with symmetry is DISCOURAGED, use correct ibrav instead

     Using Slab Decomposition

     bravais-lattice index     =            0
     lattice parameter (alat)  =       5.4235  a.u.
     unit-cell volume          =     376.6654 (a.u.)^3
     number of atoms/cell      =            6
     number of atomic types    =            2
     number of electrons       =        52.00
     number of Kohn-Sham states=           26
     kinetic-energy cutoff     =      80.0000  Ry
     charge density cutoff     =     320.0000  Ry
     scf convergence threshold =      1.0E-06
     mixing beta               =       0.4000
     number of iterations used =            8  plain     mixing
     energy convergence thresh.=      1.0E-04
     force convergence thresh. =      1.0E-03
     press convergence thresh. =      5.0E-01
     Exchange-correlation= PBE
                           (   1   4   3   4   0   0   0)
     nstep                     =           50

     celldm(1)=   5.423514  celldm(2)=   0.000000  celldm(3)=   0.000000
     celldm(4)=   0.000000  celldm(5)=   0.000000  celldm(6)=   0.000000

     crystal axes: (cart. coord. in units of alat)
               a(1) = (   1.000000   0.000000   0.000000 )
               a(2) = (   0.000000   1.536585   0.000000 )
               a(3) = (   0.000000   0.000000   1.536585 )

     reciprocal axes: (cart. coord. in units 2 pi/alat)
               b(1) = (  1.000000  0.000000  0.000000 )
               b(2) = (  0.000000  0.650794  0.000000 )
               b(3) = (  0.000000  0.000000  0.650794 )

     PseudoPot. # 1 for Ge read from file:
     ./Ge.upf
     MD5 check sum: 087fa14d6c89b52166990835c3b338da
     Pseudo is Norm-conserving + core correction, Zval = 14.0
     Generated using ONCVPSP code by D. R. Hamann
     Using radial grid of 1560 points,  6 beta functions with:
                l(1) =   0
                l(2) =   0
                l(3) =   1
                l(4) =   1
                l(5) =   2
                l(6) =   2

     PseudoPot. # 2 for O  read from file:
     ./O.upf
     MD5 check sum: 9db02a5ece9d56b81b65a73f8163743d
     Pseudo is Norm-conserving + core correction, Zval =  6.0
     Generated using ONCVPSP code by D. R. Hamann
     Using radial grid of  936 points,  5 beta functions with:
                l(1) =   0
                l(2) =   0
                l(3) =   1
                l(4) =   1
                l(5) =   2

     atomic species   valence    mass     pseudopotential
        Ge            14.00    72.63000     Ge( 1.00)
        O              6.00    15.99900     O ( 1.00)

      2 Sym. Ops. (no inversion) found

   Cartesian axes

     site n.     atom                  positions (alat units)
         1           Ge  tau(   1) = (   0.5011349   0.7687150   0.7687150  )
         2           Ge  tau(   2) = (   0.0000000   0.0000000   0.0000000  )
         3           O   tau(   3) = (   0.0000000   1.0673289   1.0673289  )
         4           O   tau(   4) = (   0.5011349   1.2388162   0.2986139  )
         5           O   tau(   5) = (   0.0000000   0.4701012   0.4701012  )
         6           O   tau(   6) = (   0.5011349   0.2986139   1.2388162  )

     number of k points=    34
                       cart. coord. in units 2pi/alat
        k(    1) = (   0.0000000   0.0000000   0.0000000), wk =   0.0208333
        k(    2) = (   0.0000000   0.0000000   0.1626984), wk =   0.0833333
        k(    3) = (   0.0000000   0.0000000  -0.3253968), wk =   0.0416667
        k(    4) = (   0.0000000   0.1626984   0.1626984), wk =   0.0416667
        k(    5) = (   0.0000000   0.1626984  -0.3253968), wk =   0.0833333
        k(    6) = (   0.0000000  -0.3253968  -0.3253968), wk =   0.0208333
        k(    7) = (   0.1666667   0.0000000   0.0000000), wk =   0.0416667
        k(    8) = (   0.1666667   0.0000000   0.1626984), wk =   0.0833333
        k(    9) = (   0.1666667   0.0000000  -0.3253968), wk =   0.0833333
        k(   10) = (   0.1666667   0.1626984   0.1626984), wk =   0.0416667
        k(   11) = (   0.1666667   0.1626984  -0.3253968), wk =   0.0833333
        k(   12) = (   0.1666667  -0.3253968  -0.3253968), wk =   0.0416667
        k(   13) = (   0.3333333   0.0000000   0.0000000), wk =   0.0416667
        k(   14) = (   0.3333333   0.0000000   0.1626984), wk =   0.0833333
        k(   15) = (   0.3333333   0.0000000  -0.3253968), wk =   0.0833333
        k(   16) = (   0.3333333   0.1626984   0.1626984), wk =   0.0416667
        k(   17) = (   0.3333333   0.1626984  -0.3253968), wk =   0.0833333
        k(   18) = (   0.3333333  -0.3253968  -0.3253968), wk =   0.0416667
        k(   19) = (  -0.5000000   0.0000000   0.0000000), wk =   0.0208333
        k(   20) = (  -0.5000000   0.0000000   0.1626984), wk =   0.0833333
        k(   21) = (  -0.5000000   0.0000000  -0.3253968), wk =   0.0416667
        k(   22) = (  -0.5000000   0.1626984   0.1626984), wk =   0.0416667
        k(   23) = (  -0.5000000   0.1626984  -0.3253968), wk =   0.0833333
        k(   24) = (  -0.5000000  -0.3253968  -0.3253968), wk =   0.0208333
        k(   25) = (   0.0000000   0.1626984  -0.1626984), wk =   0.0416667
        k(   26) = (   0.1666667   0.0000000  -0.1626984), wk =   0.0833333
        k(   27) = (  -0.1666667   0.1626984  -0.1626984), wk =   0.0833333
        k(   28) = (   0.1666667  -0.1626984  -0.1626984), wk =   0.0416667
        k(   29) = (  -0.1666667   0.1626984   0.3253968), wk =   0.0833333
        k(   30) = (   0.3333333   0.0000000  -0.1626984), wk =   0.0833333
        k(   31) = (  -0.3333333   0.1626984  -0.1626984), wk =   0.0833333
        k(   32) = (   0.3333333  -0.1626984  -0.1626984), wk =   0.0416667
        k(   33) = (  -0.3333333   0.1626984   0.3253968), wk =   0.0833333
        k(   34) = (   0.5000000   0.1626984  -0.1626984), wk =   0.0416667

     Check: negative core charge=   -0.000001

     Initial potential from superposition of free atoms

     starting charge   51.99834, renormalised to   52.00000
     Starting wfcs are   34 randomized atomic wfcs

     Self-consistent Calculation

     iteration #  1     ecut=    80.00 Ry     beta= 0.40
     Davidson diagonalization with overlap
     ethr =  1.00E-02,  avg # of iterations =  2.0

     total energy              =    -489.69574726 Ry
     estimated scf accuracy    <       1.30726131 Ry

[...]

     End of self-consistent calculation

          k = 0.0000 0.0000 0.0000 (  4571 PWs)   bands (ev):

   -13.5532 -13.3320 -13.1908 -13.1861 -13.1816 -13.1034 -13.0984 -13.0786
   -13.0731 -13.0589  -9.8952  -6.8890  -6.8852  -6.0366   0.8893   5.6848
     5.6950   6.2749   6.6062   7.8228   8.7485   9.1403   9.1407  10.3517
    10.3538  11.1721

[...]

          k =-0.5000 0.0000 0.0000 (  4544 PWs)   bands (ev):

[...]

     highest occupied level (ev):    11.1721

!    total energy              =    -489.98640662 Ry
     estimated scf accuracy    <       0.00000099 Ry

     The total energy is the sum of the following terms:
     one-electron contribution =    -156.17761831 Ry
     hartree contribution      =     120.82253744 Ry
     xc contribution           =    -121.70540374 Ry
     ewald contribution        =    -332.92592201 Ry

     convergence has been achieved in   7 iterations

     Forces acting on atoms (cartesian axes, Ry/au):

     atom    1 type  1   force =    -0.00242884   -0.00056728   -0.00056728
     atom    2 type  1   force =     0.00246067    0.00094648    0.00094648
     atom    3 type  2   force =     0.00202406   -0.00007297   -0.00007297
     atom    4 type  2   force =    -0.00204266   -0.00208588    0.00200314
     atom    5 type  2   force =     0.00202944   -0.00022349   -0.00022349
     atom    6 type  2   force =    -0.00204266    0.00200314   -0.00208588

     Total force =     0.006913     Total SCF correction =     0.001094
     SCF correction compared to forces is large: reduce conv_thr to get better values

     Computing stress (Cartesian axis) and pressure

          total   stress  (Ry/bohr**3)                   (kbar)     P=       99.17
   0.00078764  -0.00000001  -0.00000001          115.87       -0.00       -0.00
  -0.00000001   0.00061735   0.00000020           -0.00       90.82        0.03
  -0.00000001   0.00000020   0.00061735           -0.00        0.03       90.82

     BFGS Geometry Optimization
     Energy error            =      0.0E+00 Ry
     Gradient error          =      2.5E-03 Ry/Bohr
     Cell gradient error     =      1.2E+02 kbar

     number of scf cycles    =   1
     number of bfgs steps    =   0

     enthalpy           new  =    -489.9864066153 Ry

     new trust radius        =       0.0764322743 bohr
     new conv_thr            =       0.0000010000 Ry

     new unit-cell volume =    396.02951 a.u.^3 (    58.68552 Ang^3 )
     density =      5.92101 g/cm^3

CELL_PARAMETERS (angstrom)
   2.926513323  -0.000000404  -0.000000404
  -0.000000621   4.478063221   0.000022157
  -0.000000621   0.000022157   4.478063221

ATOMIC_POSITIONS (angstrom)
Ge            1.4652667519        2.2399685494        2.2399685494
Ge            0.0013277713        0.0005085905        0.0005085905
O             0.0010913118        3.1104875916        3.1104875916
O             1.4654751312        3.6091593412        0.8713429499
O             0.0010946997        1.3699002619        1.3699002619
O             1.4654751312        0.8713429499        3.6091593412

     Writing output data file ./out/ge.save/
     NEW-OLD atomic charge density approx. for the potential

[...]

     negative rho (up, down):  5.055E-07 0.000E+00
     extrapolated charge   54.54250, renormalised to   52.00000

[...]

     Total force =     0.016818     Total SCF correction =     0.000183

[...]

     Energy error            =      4.2E-03 Ry
     Gradient error          =      6.1E-03 Ry/Bohr
     Cell gradient error     =      4.3E+01 kbar

[...]

     enthalpy           old  =    -489.9864066153 Ry
     enthalpy           new  =    -489.9906556066 Ry

     CASE: enthalpy          _new < enthalpy          _old

[...]

     Check: negative core charge=   -0.000002
     extrapolated charge   51.41784, renormalised to   52.00000

[...]

     Threshold (ethr) on eigenvalues was too large:
     Diagonalizing with lowered threshold

     Davidson diagonalization with overlap
     ethr =  2.97E-08,  avg # of iterations =  3.1

[...]

     number of scf cycles    =   5
     number of bfgs steps    =   4

     enthalpy           old  =    -489.9914038753 Ry
     enthalpy           new  =    -489.9914244651 Ry

     CASE: enthalpy          _new < enthalpy          _old

     new trust radius        =       0.0012939673 bohr
     new conv_thr            =       0.0000000100 Ry

     new unit-cell volume =    392.09409 a.u.^3 (    58.10235 Ang^3 )
     density =      5.98044 g/cm^3

[...]

ATOMIC_POSITIONS (angstrom)
Ge            1.4540053401        2.2371190524        2.2371190524
Ge            0.0017521523        0.0009678351        0.0009678351
O             0.0016341598        3.1007234439        3.1007234439
O             1.4540972023        3.6098489204        0.8646871120
O             0.0016343308        1.3735841194        1.3735841194
O             1.4540972023        0.8646871120        3.6098489204

     Writing output data file ./out/ge.save/
     NEW-OLD atomic charge density approx. for the potential

     Check: negative core charge=   -0.000002
     extrapolated charge   52.03107, renormalised to   52.00000

[...]

     Threshold (ethr) on eigenvalues was too large:
     Diagonalizing with lowered threshold

     Davidson diagonalization with overlap
     ethr =  3.93E-08,  avg # of iterations =  1.9

[...]

     Total force =     0.000191     Total SCF correction =     0.000084
     SCF correction compared to forces is large: reduce conv_thr to get better values

[...]

     Energy error            =      1.7E-06 Ry
     Gradient error          =      7.6E-05 Ry/Bohr
     Cell gradient error     =      2.4E-01 kbar

     bfgs converged in   6 scf cycles and   5 bfgs steps
     (criteria: energy <  1.0E-04 Ry, force <  1.0E-03Ry/Bohr, cell <  5.0E-01kbar)

     End of BFGS Geometry Optimization

     Final enthalpy           =    -489.9914261432 Ry

     File ./out/ge.bfgs deleted, as requested
Begin final coordinates
     new unit-cell volume =    392.09409 a.u.^3 (    58.10235 Ang^3 )
     density =      5.98044 g/cm^3

CELL_PARAMETERS (angstrom)
   2.904886451   0.000000058   0.000000058
   0.000000085   4.472313810  -0.000000258
   0.000000085  -0.000000258   4.472313810

ATOMIC_POSITIONS (angstrom)
Ge            1.4540053401        2.2371190524        2.2371190524
Ge            0.0017521523        0.0009678351        0.0009678351
O             0.0016341598        3.1007234439        3.1007234439
O             1.4540972023        3.6098489204        0.8646871120
O             0.0016343308        1.3735841194        1.3735841194
O             1.4540972023        0.8646871120        3.6098489204
End final coordinates

     Writing output data file ./out/ge.save/

     Final scf calculation at the relaxed structure.
     The G-vectors are recalculated for the final unit cell
     Results may differ from those at the preceding step.

     Using Slab Decomposition

     bravais-lattice index     =            0
     lattice parameter (alat)  =       5.4235  a.u.
     unit-cell volume          =     392.0941 (a.u.)^3
     number of atoms/cell      =            6
     number of atomic types    =            2
     number of electrons       =        52.00
     number of Kohn-Sham states=           26
     kinetic-energy cutoff     =      80.0000  Ry
     charge density cutoff     =     320.0000  Ry
     scf convergence threshold =      1.0E-08
     mixing beta               =       0.4000
     number of iterations used =            8  plain     mixing
     press convergence thresh. =      5.0E-01
     Exchange-correlation= PBE
                           (   1   4   3   4   0   0   0)

     celldm(1)=   5.423514  celldm(2)=   0.000000  celldm(3)=   0.000000
     celldm(4)=   0.000000  celldm(5)=   0.000000  celldm(6)=   0.000000

     crystal axes: (cart. coord. in units of alat)
               a(1) = (   1.012156   0.000000   0.000000 )
               a(2) = (   0.000000   1.558297  -0.000000 )
               a(3) = (   0.000000  -0.000000   1.558297 )

     reciprocal axes: (cart. coord. in units 2 pi/alat)
               b(1) = (  0.987990 -0.000000 -0.000000 )
               b(2) = ( -0.000000  0.641726  0.000000 )
               b(3) = ( -0.000000  0.000000  0.641726 )

     PseudoPot. # 1 for Ge read from file:
     ./Ge.upf
     MD5 check sum: 087fa14d6c89b52166990835c3b338da
     Pseudo is Norm-conserving + core correction, Zval = 14.0
     Generated using ONCVPSP code by D. R. Hamann
     Using radial grid of 1560 points,  6 beta functions with:
                l(1) =   0
                l(2) =   0
                l(3) =   1
                l(4) =   1
                l(5) =   2
                l(6) =   2

     PseudoPot. # 2 for O  read from file:
     ./O.upf
     MD5 check sum: 9db02a5ece9d56b81b65a73f8163743d
     Pseudo is Norm-conserving + core correction, Zval =  6.0
     Generated using ONCVPSP code by D. R. Hamann
     Using radial grid of  936 points,  5 beta functions with:
                l(1) =   0
                l(2) =   0
                l(3) =   1
                l(4) =   1
                l(5) =   2

     atomic species   valence    mass     pseudopotential
        Ge            14.00    72.63000     Ge( 1.00)
        O              6.00    15.99900     O ( 1.00)

      2 Sym. Ops. (no inversion) found

   Cartesian axes

     site n.     atom                  positions (alat units)
         1           Ge  tau(   1) = (   0.5066221   0.7794840   0.7794840  )
         2           Ge  tau(   2) = (   0.0006105   0.0003372   0.0003372  )
         3           O   tau(   3) = (   0.0005694   1.0803914   1.0803914  )
         4           O   tau(   4) = (   0.5066541   1.2577871   0.3012847  )
         5           O   tau(   5) = (   0.0005695   0.4786007   0.4786007  )
         6           O   tau(   6) = (   0.5066541   0.3012847   1.2577871  )

     number of k points=    34
                       cart. coord. in units 2pi/alat
        k(    1) = (   0.0000000   0.0000000   0.0000000), wk =   0.0208333
        k(    2) = (  -0.0000000   0.0000000   0.1604315), wk =   0.0833333
        k(    3) = (   0.0000000  -0.0000000  -0.3208630), wk =   0.0416667
        k(    4) = (  -0.0000000   0.1604315   0.1604315), wk =   0.0416667
        k(    5) = (   0.0000000   0.1604315  -0.3208630), wk =   0.0833333
        k(    6) = (   0.0000000  -0.3208630  -0.3208630), wk =   0.0208333
        k(    7) = (   0.1646651  -0.0000000  -0.0000000), wk =   0.0416667
        k(    8) = (   0.1646651   0.0000000   0.1604315), wk =   0.0833333
        k(    9) = (   0.1646651  -0.0000000  -0.3208630), wk =   0.0833333
        k(   10) = (   0.1646651   0.1604315   0.1604315), wk =   0.0416667
        k(   11) = (   0.1646651   0.1604315  -0.3208630), wk =   0.0833333
        k(   12) = (   0.1646651  -0.3208630  -0.3208630), wk =   0.0416667
        k(   13) = (   0.3293301  -0.0000000  -0.0000000), wk =   0.0416667
        k(   14) = (   0.3293301   0.0000000   0.1604315), wk =   0.0833333
        k(   15) = (   0.3293301  -0.0000000  -0.3208630), wk =   0.0833333
        k(   16) = (   0.3293301   0.1604315   0.1604315), wk =   0.0416667
        k(   17) = (   0.3293301   0.1604315  -0.3208630), wk =   0.0833333
        k(   18) = (   0.3293302  -0.3208630  -0.3208630), wk =   0.0416667
        k(   19) = (  -0.4939952   0.0000000   0.0000000), wk =   0.0208333
        k(   20) = (  -0.4939952   0.0000000   0.1604315), wk =   0.0833333
        k(   21) = (  -0.4939952  -0.0000000  -0.3208630), wk =   0.0416667
        k(   22) = (  -0.4939952   0.1604315   0.1604315), wk =   0.0416667
        k(   23) = (  -0.4939952   0.1604315  -0.3208630), wk =   0.0833333
        k(   24) = (  -0.4939952  -0.3208630  -0.3208630), wk =   0.0208333
        k(   25) = (   0.0000000   0.1604315  -0.1604315), wk =   0.0416667
        k(   26) = (   0.1646651  -0.0000000  -0.1604315), wk =   0.0833333
        k(   27) = (  -0.1646651   0.1604315  -0.1604315), wk =   0.0833333
        k(   28) = (   0.1646651  -0.1604315  -0.1604315), wk =   0.0416667
        k(   29) = (  -0.1646651   0.1604315   0.3208630), wk =   0.0833333
        k(   30) = (   0.3293301  -0.0000000  -0.1604315), wk =   0.0833333
        k(   31) = (  -0.3293301   0.1604315  -0.1604315), wk =   0.0833333
        k(   32) = (   0.3293301  -0.1604315  -0.1604315), wk =   0.0416667
        k(   33) = (  -0.3293302   0.1604315   0.3208630), wk =   0.0833333
        k(   34) = (   0.4939952   0.1604315  -0.1604315), wk =   0.0416667

     Check: negative core charge=   -0.000001

     Initial potential from superposition of free atoms

     starting charge   51.99834, renormalised to   52.00000
     Starting wfcs are   34 randomized atomic wfcs

     Self-consistent Calculation

[...]

     total energy              =    -489.99231940 Ry
     estimated scf accuracy    <       0.00000046 Ry

     iteration #  9     ecut=    80.00 Ry     beta= 0.40
     Davidson diagonalization with overlap
     ethr =  8.74E-10,  avg # of iterations =  3.5

     End of self-consistent calculation

[...]

          k =-0.3293 0.1604 0.3209 (  4756 PWs)   bands (ev):

[...]

          k = 0.4940 0.1604-0.1604 (  4758 PWs)   bands (ev):

   -14.2057 -14.1641 -13.9481 -13.8974 -13.8667 -13.8667 -13.8100 -13.8088
   -13.8082 -13.8076  -7.9464  -7.9288  -6.4610  -6.4238   0.8793   1.6866
     3.9829   4.3927   4.4762   6.4010   6.9457   8.6476   8.6584   8.7053
     8.8589   9.1530

     highest occupied level (ev):    10.4816

!    total energy              =    -489.99231949 Ry
     estimated scf accuracy    <          4.1E-09 Ry

     The total energy is the sum of the following terms:
     one-electron contribution =    -163.28219702 Ry
     hartree contribution      =     123.07148321 Ry
     xc contribution           =    -121.52166018 Ry
     ewald contribution        =    -328.25994550 Ry

     convergence has been achieved in   9 iterations

     Forces acting on atoms (cartesian axes, Ry/au):

     atom    1 type  1   force =     0.00005669    0.00001697    0.00001697
     atom    2 type  1   force =    -0.00005818    0.00001033    0.00001033
     atom    3 type  2   force =    -0.00002048    0.00021448    0.00021448
     atom    4 type  2   force =     0.00002124   -0.00021880    0.00016830
     atom    5 type  2   force =    -0.00002051   -0.00019128   -0.00019128
     atom    6 type  2   force =     0.00002124    0.00016830   -0.00021880

     Total force =     0.000572     Total SCF correction =     0.000057

     Computing stress (Cartesian axis) and pressure

          total   stress  (Ry/bohr**3)                   (kbar)     P=        4.28
   0.00002447  -0.00000000  -0.00000000            3.60       -0.00       -0.00
  -0.00000000   0.00003143   0.00000000           -0.00        4.62        0.00
  -0.00000000   0.00000000   0.00003143           -0.00        0.00        4.62

     Writing output data file ./out/ge.save/

     General routines

     Parallel routines

   This run was terminated on:  15:33: 7  19May2025

   JOB DONE.