     Program PWSCF v.6.8 starts on 28Apr2025 at 22:52:10

     R & G space division:  proc/nbgrp/npool/nimage =      56

     Reading input from surface_relax.in
Warning: card &CELL ignored
Warning: card / ignored
Warning: card &FCP ignored
Warning: card / ignored
Warning: card &RISM ignored
Warning: card / ignored

     Current dimensions of program PWSCF are:
     Max number of different atomic species (ntypx) = 10
     Max number of k-points (npk) =  40000
     Max angular momentum in pseudopotentials (lmaxx) =  4

     gamma-point specific algorithms are used

     Using Slab Decomposition

     bravais-lattice index     =            0
     lattice parameter (alat)  =      30.8404  a.u.
     unit-cell volume          =   28265.6097 (a.u.)^3
     number of atoms/cell      =           96
     number of atomic types    =            1
     number of electrons       =      1344.00
     number of Kohn-Sham states=          806
     kinetic-energy cutoff     =      60.0000  Ry
     charge density cutoff     =     240.0000  Ry
     scf convergence threshold =      1.0E-06
     mixing beta               =       0.4000
     number of iterations used =            8  plain     mixing
     energy convergence thresh.=      1.0E-04
     force convergence thresh. =      1.0E-03
     Exchange-correlation= PBE
                           (   1   4   3   4   0   0   0)
     nstep                     =          100

     celldm(1)=  30.840377  celldm(2)=   0.000000  celldm(3)=   0.000000
     celldm(4)=   0.000000  celldm(5)=   0.000000  celldm(6)=   0.000000

     crystal axes: (cart. coord. in units of alat)
               a(1) = (   1.000000   0.000000   0.000000 )
               a(2) = (   0.000000   0.707107   0.000000 )
               a(3) = (   0.000000   0.000000   1.362744 )

     reciprocal axes: (cart. coord. in units 2 pi/alat)
               b(1) = (  1.000000  0.000000  0.000000 )
               b(2) = (  0.000000  1.414214  0.000000 )
               b(3) = (  0.000000  0.000000  0.733813 )

     PseudoPot. # 1 for Ge read from file:
     ./Ge.upf
     MD5 check sum: 087fa14d6c89b52166990835c3b338da
     Pseudo is Norm-conserving + core correction, Zval = 14.0
     Generated using ONCVPSP code by D. R. Hamann
     Using radial grid of 1560 points,  6 beta functions with:
                l(1) =   0
                l(2) =   0
                l(3) =   1
                l(4) =   1
                l(5) =   2
                l(6) =   2

     atomic species   valence    mass     pseudopotential
        Ge            14.00    72.63000     Ge( 1.00)

     No symmetry found

   Cartesian axes

     site n.     atom                  positions (alat units)
         1           Ge  tau(   1) = (   0.0001775  -0.0009227   0.3053813  )
         2           Ge  tau(   2) = (  -0.0005021   0.2652847   0.4314594  )
         3           Ge  tau(   3) = (   0.3752386   0.1772557   0.4314668  )
         4           Ge  tau(   4) = (   0.1252461   0.0884827   0.3056699  )
         5           Ge  tau(   5) = (   0.1259603   0.1768674   0.4315829  )
         6           Ge  tau(   6) = (   0.3746873   0.0894302   1.0567885  )
         7           Ge  tau(   7) = (   0.2512108  -0.0012253   0.3071574  )
         8           Ge  tau(   8) = (   0.2492558   0.2641862   0.4320373  )
         9           Ge  tau(   9) = (   0.2499236  -0.0002028   0.5551817  )
        10           Ge  tau(  10) = (   0.2501840   0.2640129   0.6803589  )
        11           Ge  tau(  11) = (   0.1245870   0.1777048   0.6807521  )
        12           Ge  tau(  12) = (   0.3754509   0.0872992   0.5574351  )
        13           Ge  tau(  13) = (   0.3757288   0.1770370   0.6821452  )
        14           Ge  tau(  14) = (   0.1242357   0.0876451   0.5564753  )
        15           Ge  tau(  15) = (  -0.0009924  -0.0009929   0.5563411  )
        16           Ge  tau(  16) = (   0.0006225   0.2641659   0.6809762  )
        17           Ge  tau(  17) = (   0.0009953  -0.0009692   0.8070174  )
        18           Ge  tau(  18) = (   0.4997176   0.2656108   0.9319485  )
        19           Ge  tau(  19) = (   0.3746541   0.1765924   0.9323958  )
        20           Ge  tau(  20) = (   0.1246503   0.0889012   0.8054329  )
        21           Ge  tau(  21) = (   0.1238433   0.1763949   0.9308881  )
        22           Ge  tau(  22) = (   0.3761091   0.0881737   0.8067810  )
        23           Ge  tau(  23) = (   0.2498423   0.0008169   0.8060147  )
        24           Ge  tau(  24) = (   0.2494206   0.2651209   0.9302550  )
        25           Ge  tau(  25) = (   0.0009618   0.3546948   0.3068665  )
        26           Ge  tau(  26) = (  -0.0008580   0.6183481   0.4301912  )
        27           Ge  tau(  27) = (   0.3741912   0.5292574   0.4305854  )
        28           Ge  tau(  28) = (   0.1248353   0.4428986   0.3070647  )
        29           Ge  tau(  29) = (   0.1260208   0.5296539   0.4302115  )
        30           Ge  tau(  30) = (   0.3760751   0.4419623   1.0552685  )
        31           Ge  tau(  31) = (   0.2507026   0.3536140   0.3069463  )
        32           Ge  tau(  32) = (   0.2492544   0.6198509   0.4310576  )
        33           Ge  tau(  33) = (   0.2488887   0.3539855   0.5561919  )
        34           Ge  tau(  34) = (   0.2501932   0.6178150   0.6815577  )
        35           Ge  tau(  35) = (   0.1251761   0.5300163   0.6821962  )
        36           Ge  tau(  36) = (   0.3744159   0.4413392   0.5562497  )
        37           Ge  tau(  37) = (   0.3760299   0.5312106   0.6822506  )
        38           Ge  tau(  38) = (   0.1260189   0.4410301   0.5571457  )
        39           Ge  tau(  39) = (  -0.0007177   0.3525262   0.5563194  )
        40           Ge  tau(  40) = (  -0.0000706   0.6187431   0.6818482  )
        41           Ge  tau(  41) = (   0.0010203   0.3526747   0.8061484  )
        42           Ge  tau(  42) = (   0.5003634   0.6197259   0.9321935  )
        43           Ge  tau(  43) = (   0.3745253   0.5309557   0.9319237  )
        44           Ge  tau(  44) = (   0.1249850   0.4428796   0.8055025  )
        45           Ge  tau(  45) = (   0.1246721   0.5309908   0.9317280  )
        46           Ge  tau(  46) = (   0.3762242   0.4426304   0.8057993  )
        47           Ge  tau(  47) = (   0.2492974   0.3542028   0.8074737  )
        48           Ge  tau(  48) = (   0.2501375   0.6187746   0.9325231  )
        49           Ge  tau(  49) = (   0.4995576  -0.0010726   0.3065594  )
        50           Ge  tau(  50) = (   0.5008490   0.2647148   0.4316814  )
        51           Ge  tau(  51) = (   0.8741563   0.1759166   0.4306380  )
        52           Ge  tau(  52) = (   0.6245910   0.0877507   0.3060892  )
        53           Ge  tau(  53) = (   0.6248368   0.1779833   0.4315145  )
        54           Ge  tau(  54) = (   0.8759262   0.0888829   1.0573029  )
        55           Ge  tau(  55) = (   0.7495469  -0.0005962   0.3057204  )
        56           Ge  tau(  56) = (   0.7494760   0.2659576   0.4306546  )
        57           Ge  tau(  57) = (   0.7502175   0.0000292   0.5560140  )
        58           Ge  tau(  58) = (   0.7489369   0.2653284   0.6814166  )
        59           Ge  tau(  59) = (   0.6252354   0.1778031   0.6814068  )
        60           Ge  tau(  60) = (   0.8755142   0.0878477   0.5558786  )
[...]
        82           Ge  tau(  82) = (   0.7493937   0.6183747   0.6814589  )
        83           Ge  tau(  83) = (   0.6251182   0.5308560   0.6807488  )
        84           Ge  tau(  84) = (   0.8750226   0.4427387   0.5569859  )
        85           Ge  tau(  85) = (   0.8738832   0.5291188   0.6816642  )
        86           Ge  tau(  86) = (   0.6252608   0.4412123   0.5556500  )
        87           Ge  tau(  87) = (   0.4999570   0.3537380   0.5574727  )
        88           Ge  tau(  88) = (   0.4995276   0.6194220   0.6808983  )
        89           Ge  tau(  89) = (   0.4988165   0.3542838   0.8055231  )
        90           Ge  tau(  90) = (   0.0007872   0.6176549   0.9304304  )
        91           Ge  tau(  91) = (   0.8745090   0.5296191   0.9308785  )
        92           Ge  tau(  92) = (   0.6249818   0.4417251   0.8063781  )
        93           Ge  tau(  93) = (   0.6241103   0.5314042   0.9320814  )
        94           Ge  tau(  94) = (   0.8739015   0.4427530   0.8058101  )
        95           Ge  tau(  95) = (   0.7507020   0.3537886   0.8071573  )
        96           Ge  tau(  96) = (   0.7502854   0.6176157   0.9315585  )

     number of k points=     1  Gaussian smearing, width (Ry)=  0.0100
                       cart. coord. in units 2pi/alat
        k(    1) = (   0.0000000   0.0000000   0.0000000), wk =   2.0000000

     Initial potential from superposition of free atoms

     starting charge 1343.92100, renormalised to 1344.00000

     negative rho (up, down):  3.367E-04 0.000E+00
     Starting wfcs are  864 randomized atomic wfcs

     Self-consistent Calculation

     iteration #  1     ecut=    60.00 Ry     beta= 0.40
     Davidson diagonalization with overlap
     ethr =  1.00E-02,  avg # of iterations =  3.0

     Threshold (ethr) on eigenvalues was too large:
     Diagonalizing with lowered threshold

     Davidson diagonalization with overlap
     ethr =  2.80E-04,  avg # of iterations = 11.0

     negative rho (up, down):  1.354E-04 0.000E+00

     total energy              =  -17142.52865574 Ry
     estimated scf accuracy    <       4.06062453 Ry

[...]

     iteration #  7     ecut=    60.00 Ry     beta= 0.40
     Davidson diagonalization with overlap
     c_bands:  2 eigenvalues not converged
     ethr =  2.14E-05,  avg # of iterations = 20.0

[...]

     End of self-consistent calculation

          k = 0.0000 0.0000 0.0000 (110906 PWs)   bands (ev):

   -22.6266 -22.6236 -22.6233 -22.6202 -22.6010 -22.5981 -22.5853 -22.5825
   -22.4661 -22.4637 -22.4426 -22.4276 -22.4255 -22.4253 -22.4055 -22.4051
   -22.4011 -22.3885 -22.3869 -22.3690 -22.0940 -22.0839 -22.0812 -22.0802
   -22.0746 -22.0719 -22.0710 -22.0689 -22.0668 -22.0656 -22.0637 -22.0633
   -22.0626 -22.0603 -22.0586 -22.0559 -22.0553 -22.0542 -22.0530 -22.0500
   -22.0467 -22.0461 -22.0435 -22.0401 -22.0392 -22.0379 -22.0373 -22.0363
   -22.0347 -22.0315 -22.0310 -22.0304 -22.0286 -22.0282 -22.0270 -22.0253
   -22.0251 -22.0229 -22.0217 -22.0202 -22.0190 -22.0184 -22.0173 -22.0158
   -22.0150 -22.0148 -22.0132 -22.0123 -22.0118 -22.0104 -22.0096 -22.0087
   -22.0081 -22.0070 -22.0060 -22.0056 -22.0044 -22.0037 -22.0024 -21.9996
   -21.9983 -21.9963 -21.9962 -21.9937 -21.9922 -21.9908 -21.9901 -21.9892
   -21.9869 -21.9869 -21.9854 -21.9843 -21.9832 -21.9814 -21.9811 -21.9791
   -21.9786 -21.9777 -21.9763 -21.9749 -21.9744 -21.9727 -21.9717 -21.9714
   -21.9687 -21.9676 -21.9666 -21.9660 -21.9656 -21.9642 -21.9637 -21.9627
   -21.9618 -21.9613 -21.9604 -21.9600 -21.9586 -21.9582 -21.9577 -21.9572
   -21.9555 -21.9550 -21.9540 -21.9536 -21.9532 -21.9527 -21.9520 -21.9511
   -21.9500 -21.9495 -21.9490 -21.9480 -21.9460 -21.9451 -21.9444 -21.9434
   -21.9401 -21.9398 -21.9392 -21.9372 -21.9363 -21.9359 -21.9347 -21.9344
[...]
   -21.9067 -21.9050 -21.9037 -21.9015 -21.9004 -21.8988 -21.8971 -21.8966
   -21.8962 -21.8958 -21.8932 -21.8929 -21.8922 -21.8895 -21.8881 -21.8873
   -21.8870 -21.8863 -21.8861 -21.8859 -21.8827 -21.8822 -21.8820 -21.8810
   -21.8800 -21.8788 -21.8788 -21.8740 -21.8739 -21.8717 -21.8697 -21.8686
   -21.8681 -21.8679 -21.8674 -21.8645 -21.8642 -21.8635 -21.8609 -21.8607
   -21.8592 -21.8585 -21.8584 -21.8559 -21.8558 -21.8530 -21.8529 -21.8529
   -21.8526 -21.8523 -21.8508 -21.8506 -21.8490 -21.8487 -21.8480 -21.8475
   -21.8465 -21.8463 -21.8448 -21.8441 -21.8435 -21.8432 -21.8431 -21.8428
   -21.8418 -21.8411 -21.8403 -21.8400 -21.8387 -21.8383 -21.8375 -21.8363
   -21.8344 -21.8332 -21.8321 -21.8317 -21.8291 -21.8286 -21.8280 -21.8275
   -21.8272 -21.8271 -21.8268 -21.8265 -21.8264 -21.8244 -21.8233 -21.8230
   -21.8228 -21.8222 -21.8202 -21.8201 -21.8201 -21.8187 -21.8182 -21.8173
   -21.8171 -21.8163 -21.8148 -21.8136 -21.8132 -21.8125 -21.8122 -21.8110
   -21.8105 -21.8103 -21.8098 -21.8084 -21.8080 -21.8061 -21.8061 -21.8048
   -21.8042 -21.8035 -21.8033 -21.8030 -21.8015 -21.8007 -21.8005 -21.8001
   -21.7999 -21.7997 -21.7993 -21.7987 -21.7984 -21.7980 -21.7973 -21.7957
   -21.7953 -21.7950 -21.7945 -21.7935 -21.7927 -21.7924 -21.7918 -21.7911
   -21.7908 -21.7899 -21.7891 -21.7887 -21.7886 -21.7876 -21.7872 -21.7870
   -21.7860 -21.7854 -21.7846 -21.7840 -21.7835 -21.7832 -21.7822 -21.7807
   -21.7803 -21.7797 -21.7782 -21.7779 -21.7756 -21.7747 -21.7741 -21.7740
   -21.7738 -21.7734 -21.7732 -21.7726 -21.7721 -21.7720 -21.7712 -21.7690
   -21.7685 -21.7669 -21.7666 -21.7647 -21.7643 -21.7635 -21.7628 -21.7615
   -21.7611 -21.7600 -21.7597 -21.7595 -21.7587 -21.7586 -21.7579 -21.7578
   -21.7575 -21.7570 -21.7566 -21.7539 -21.7533 -21.7524 -21.7511 -21.7505
   -21.7495 -21.7481 -21.7477 -21.7472 -21.7469 -21.7464 -21.7456 -21.7452
   -21.7449 -21.7438 -21.7436 -21.7428 -21.7427 -21.7421 -21.7417 -21.7416
   -21.7409 -21.7396 -21.7395 -21.7389 -21.7379 -21.7377 -21.7377 -21.7374
   -21.7372 -21.7371 -21.7354 -21.7347 -21.7345 -21.7335 -21.7330 -21.7326
   -21.7325 -21.7324 -21.7317 -21.7314 -21.7308 -21.7304 -21.7283 -21.7274
   -21.7267 -21.7263 -21.7261 -21.7250 -21.7246 -21.7239 -21.7233 -21.7231
   -21.7219 -21.7217 -21.7213 -21.7195 -21.7173 -21.7171 -21.7167 -21.7154
   -21.7151 -21.7147 -21.7141 -21.7140 -21.7135 -21.7134 -21.7128 -21.7119
   -21.7117 -21.7107 -21.7105 -21.7086 -21.7082 -21.7077 -21.7058 -21.7041
   -21.7040 -21.7032 -21.7026 -21.7004 -21.6984 -21.6983 -21.6970 -21.6968
   -21.6955 -21.6946 -21.6935 -21.6919 -21.6916 -21.6913 -21.6908 -21.6900
   -21.6865 -21.6864 -21.6852 -21.6848 -21.6838 -21.6832 -21.6826 -21.6818
   -21.6809 -21.6799 -21.6788 -21.6786 -21.6781 -21.6771 -21.6765 -21.6743
   -21.6738 -21.6734 -21.6687 -21.6673 -21.6633 -21.6620 -21.6615 -21.6613
   -21.6611 -21.6591 -21.6589 -21.6573 -21.6553 -21.6542 -21.6531 -21.6528
   -21.6509 -21.6508 -21.6501 -21.6457 -21.6445 -21.6389 -21.6385 -21.6348
   -21.6343 -21.6335 -21.6322 -21.6304 -21.6299 -21.6290 -21.6279 -21.6250
   -21.6247 -21.6234 -21.6206 -21.6178 -21.6171 -21.6141 -21.6131 -21.6115
   -21.6110 -21.6104 -21.6087 -21.6086 -21.5967 -21.5953 -21.5938 -21.5937
   -21.5933 -21.5921 -21.5913 -21.5911 -21.5806 -21.5794 -21.5773 -21.5754
   -21.5644 -21.5638 -21.5632 -21.5623 -21.5510 -21.5495 -21.5493 -21.5483
   -21.5476 -21.5466 -21.5464 -21.5459 -21.5454 -21.5450 -21.5446 -21.5423
   -21.5267 -21.5263 -21.5251 -21.5239 -21.5166 -21.5163 -21.5154 -21.5140
   -21.5122 -21.5120 -21.5115 -21.5109 -21.4951 -21.4946 -21.4928 -21.4923
[...]
     3.6873   3.6938   3.7242   3.8698   3.8824   4.0183   4.0396   4.0698
     4.1813   4.1855   4.2130   4.2310   4.3258   4.3583   4.4158   4.4261
     4.4346   4.4364   4.5820   4.6443   4.6851   4.7524   4.7715   4.7835
     4.8526   4.8871   4.9989   5.0232   5.0375   5.0589   5.0606   5.1114
     5.1137   5.1174   5.1880   5.2081   5.2465   5.2704   5.2814   5.2963
     5.3165   5.3932   5.3939   5.4065   5.4682   5.5410   5.5818   5.6016
     5.6049   5.6496   5.7117   5.7204   5.7479   5.7992   5.8326   5.8405
     5.8568   5.9302   6.0227   6.0720   6.1104   6.2632   6.2736   6.2939
     6.2991   6.3006   6.3176   6.3455   6.3861   6.4435   6.4517   6.4840
     6.5003   6.5275   6.5533   6.5944   6.6043   6.6459   6.6712   6.6833
     6.6854   6.7253   6.7811   6.8387   6.8471   6.8478   6.8526   6.8686
     6.9136   6.9414   6.9511   7.0143   7.0234   7.0521   7.0732   7.1231
     7.1397   7.1652   7.1783   7.1848   7.2369   7.3112   7.3307   7.3563
     7.3894   7.3918   7.3990   7.4491   7.4527   7.4998   7.5137   7.5462
     7.5781   7.6158   7.6293   7.6341   7.6467   7.6567

     the Fermi energy is     2.6077 ev

!    total energy              =  -17144.60904702 Ry
     estimated scf accuracy    <          6.9E-09 Ry
     smearing contrib. (-TS)   =      -0.01867073 Ry
     internal energy E=F+TS    =  -17144.59037630 Ry

     The total energy is F=E-TS. E is the sum of the following terms:
     one-electron contribution =  -57004.13109008 Ry
     hartree contribution      =   29093.44852688 Ry
     xc contribution           =   -4181.92403394 Ry
     ewald contribution        =   14948.01622084 Ry

     convergence has been achieved in  12 iterations

     Forces acting on atoms (cartesian axes, Ry/au):

     atom    1 type  1   force =    -0.00039099   -0.00014547   -0.00027554
     atom    2 type  1   force =    -0.00010033   -0.00004804    0.00046266
     atom    3 type  1   force =    -0.00002223   -0.00017223   -0.00027320
     atom    4 type  1   force =     0.00007301    0.00055659   -0.00007017
     atom    5 type  1   force =    -0.00014001   -0.00009655    0.00002631
     atom    6 type  1   force =    -0.00030083    0.00057781    0.00043778
     atom    7 type  1   force =     0.00024259   -0.00022986   -0.00038871
     atom    8 type  1   force =     0.00021305   -0.00000323    0.00058180
     atom    9 type  1   force =    -0.00005995   -0.00000137   -0.00044111
     atom   10 type  1   force =     0.00030665    0.00033385    0.00057941
     atom   11 type  1   force =     0.00019705    0.00003073   -0.00002987
     atom   12 type  1   force =    -0.00015565    0.00054148    0.00023137
     atom   13 type  1   force =    -0.00030255   -0.00046441   -0.00000303
     atom   14 type  1   force =     0.00011499   -0.00016112    0.00031218
     atom   15 type  1   force =     0.00012997   -0.00009854   -0.00078102
     atom   16 type  1   force =    -0.00023429    0.00040981    0.00012064
     atom   17 type  1   force =    -0.00012560   -0.00039796   -0.00042152
     atom   18 type  1   force =    -0.00029770   -0.00024097    0.00042388
     atom   19 type  1   force =    -0.00045493    0.00003287    0.00046483
     atom   20 type  1   force =     0.00024302    0.00024953    0.00044249
     atom   21 type  1   force =     0.00034636    0.00035973   -0.00067439
     atom   22 type  1   force =    -0.00019594    0.00037713   -0.00000218
     atom   23 type  1   force =     0.00013673   -0.00023355   -0.00009587
     atom   24 type  1   force =     0.00066999   -0.00044287    0.00075655
     atom   25 type  1   force =    -0.00011479   -0.00007635   -0.00025095
     atom   26 type  1   force =    -0.00030597   -0.00003768    0.00029886
     atom   27 type  1   force =     0.00009169    0.00006423   -0.00061710
     atom   28 type  1   force =     0.00017439    0.00032536   -0.00040104
     atom   29 type  1   force =     0.00005331    0.00002210    0.00028219
     atom   30 type  1   force =    -0.00023043    0.00005238    0.00008963
     atom   31 type  1   force =    -0.00024786    0.00001340   -0.00049873
     atom   32 type  1   force =    -0.00005417   -0.00004559    0.00007666
     atom   33 type  1   force =     0.00005188   -0.00022482   -0.00090318
     atom   34 type  1   force =     0.00012225    0.00025743    0.00004058
     atom   35 type  1   force =    -0.00007138    0.00026064   -0.00019201
     atom   36 type  1   force =    -0.00003425    0.00028177    0.00085702
     atom   37 type  1   force =    -0.00025145   -0.00032632   -0.00060905
     atom   38 type  1   force =    -0.00013070    0.00005840    0.00040227
     atom   39 type  1   force =    -0.00019715    0.00012125   -0.00074103
     atom   40 type  1   force =     0.00009332    0.00007182    0.00000235
     atom   41 type  1   force =    -0.00045173   -0.00040598   -0.00006094
     atom   42 type  1   force =    -0.00028989   -0.00022568    0.00041200
     atom   43 type  1   force =    -0.00026747   -0.00074589    0.00021101
     atom   44 type  1   force =     0.00012710    0.00010253    0.00049659
     atom   45 type  1   force =     0.00052084    0.00015367   -0.00079495
     atom   46 type  1   force =    -0.00058119    0.00025525    0.00031090
     atom   47 type  1   force =     0.00032699   -0.00036738   -0.00054217
     atom   48 type  1   force =     0.00038536    0.00003379    0.00047748
     atom   49 type  1   force =    -0.00015078   -0.00010468   -0.00033026
     atom   50 type  1   force =    -0.00011405   -0.00001686    0.00035487
     atom   51 type  1   force =    -0.00010278   -0.00021838   -0.00050420
     atom   52 type  1   force =    -0.00002264    0.00043894   -0.00012881
     atom   53 type  1   force =     0.00024870   -0.00010385    0.00001210
     atom   54 type  1   force =    -0.00021490    0.00027828    0.00038875
     atom   55 type  1   force =     0.00012859    0.00005429   -0.00031787
     atom   56 type  1   force =     0.00003265   -0.00006379    0.00052765
     atom   57 type  1   force =    -0.00005918    0.00011197   -0.00057209
     atom   58 type  1   force =     0.00022113    0.00003205    0.00036645
     atom   59 type  1   force =    -0.00003887    0.00015270    0.00023491
     atom   60 type  1   force =    -0.00028742    0.00067125    0.00050717
[...]
     atom   82 type  1   force =     0.00012314    0.00042909   -0.00002310
     atom   83 type  1   force =     0.00019992    0.00006070    0.00005378
     atom   84 type  1   force =     0.00015459    0.00016445    0.00007339
     atom   85 type  1   force =    -0.00005936   -0.00026734   -0.00017955
     atom   86 type  1   force =    -0.00011990    0.00009696    0.00021417
     atom   87 type  1   force =     0.00003737   -0.00007416   -0.00059532
     atom   88 type  1   force =    -0.00007846    0.00018157    0.00024700
     atom   89 type  1   force =     0.00025709   -0.00061362    0.00019122
     atom   90 type  1   force =    -0.00077745   -0.00032698    0.00053872
     atom   91 type  1   force =    -0.00002182   -0.00041652    0.00035458
     atom   92 type  1   force =    -0.00026570   -0.00000553    0.00019533
     atom   93 type  1   force =     0.00026591    0.00042561   -0.00072574
     atom   94 type  1   force =     0.00058983    0.00028898    0.00026394
     atom   95 type  1   force =     0.00004653   -0.00077087   -0.00004904
     atom   96 type  1   force =     0.00075956   -0.00005591    0.00053517

     Total force =     0.005673     Total SCF correction =     0.000531
     Energy error            =      6.3E-05 Ry
     Gradient error          =      9.2E-04 Ry/Bohr

     bfgs converged in  47 scf cycles and  46 bfgs steps
     (criteria: energy <  1.0E-04 Ry, force <  1.0E-03 Ry/Bohr)

     End of BFGS Geometry Optimization

     Final energy             =  -17144.6090470232 Ry

     File ./out/ge.bfgs deleted, as requested
Begin final coordinates

ATOMIC_POSITIONS (angstrom)
Ge           -0.4040153565        0.6122490232        5.2635083026
Ge           -0.1261311778        4.4156890143        6.9052605243
Ge            6.1197170295        2.4747132083        6.7489995785
Ge            2.0445547034        1.0027838228        5.6582691886
Ge            2.0415440450        3.0868619153        6.9985601991
Ge            6.1210901956        0.2752348120       16.7557479618
Ge            4.4953858104        0.6135107612        5.2667106956
Ge            4.2080484961        4.4172114130        6.9092178227
Ge            4.1079906263       -0.0176706737        9.0493403078
Ge            4.0329699225        4.3421435885       11.0966499023
Ge            2.0381859089        2.8188956910       11.1208706114
Ge            6.1201469393        1.4707448911        9.0337024948
Ge            6.1206233974        2.9209071494       11.0515715856
Ge            2.0390516419        1.4497592284        8.9914662269
Ge           -0.0285358228       -0.0193648433        9.0472169586
Ge            0.0445335102        4.3417825779       11.0959504625
Ge           -0.0066159703       -0.0533160139       13.1741016184
Ge            7.8317618144        4.4489998715       15.3656019389
Ge            6.1204362818        2.5145646108       15.2469983966
Ge            2.0373438463        1.4930148943       13.2760188344
Ge            2.0341209886        3.4597460112       15.0305750157
Ge            6.1194821600        1.4489208638       13.0423467620
Ge            4.0831337938       -0.0542525716       13.1743366165
Ge            4.4027700863        4.4476824771       15.3653807315
Ge           -0.4038681267        6.3822068344        5.2626932912
Ge           -0.1252586914       10.1852559366        6.9063220466
Ge            6.1193831693        8.2460370449        6.7500132393
Ge            2.0458704895        6.7725463719        5.6594653012
Ge            2.0421199227        8.8567908963        6.9984217600
Ge            6.1204472593        6.0520770603       16.7572723108
Ge            4.4990657216        6.3827835104        5.2685411203
Ge            4.2089876047       10.1874332956        6.9100996857
Ge            4.1082203538        5.7535645084        9.0492540340
Ge            4.0335317149       10.1114407659       11.0984912582
Ge            2.0386382174        8.5882466332       11.1227760431
Ge            6.1200387130        7.2422280656        9.0325591805
Ge            6.1204817412        8.6898757349       11.0531963774
Ge            2.0399173105        7.2198455740        8.9918287699
Ge           -0.0282302353        5.7511411197        9.0460016849
Ge            0.0440892533       10.1125791291       11.0980220085
Ge           -0.0061973778        5.7157905665       13.1726206060
Ge            7.8335702219       10.2177502819       15.3661757474
Ge            6.1200056817        8.2883504168       15.2468726571
Ge            2.0376831596        7.2627179510       13.2777191490
Ge            2.0348148794        9.2226544969       15.0417097326
Ge            6.1206179190        7.2198713198       13.0431073733
Ge            4.0834910438        5.7161785211       13.1746576573
Ge            4.4018815970       10.2153593849       15.3658943732
Ge            7.7468153888        0.6142639871        5.2658201920
Ge            8.0308510068        4.4166111665        6.9073418023
Ge           14.2815609550        2.4739144140        6.7454360042
Ge           10.1987530615        1.0040931147        5.6553361729
Ge           10.1983754323        3.0882355772        6.9954701047
Ge           14.2758458169        0.2784696917       16.7535495735
Ge           12.6491629545        0.6124305180        5.2607984670
Ge           12.3675333554        4.4161510744        6.9038512181
Ge           12.2676514300       -0.0196798829        9.0440217696
Ge           12.1928662168        4.3430173326       11.0928082847
Ge           10.1991430696        2.8190168502       11.1166473678
Ge           14.2803441548        1.4693100151        9.0300457142
[...]
Ge           12.1927204222       10.1112042721       11.0947454600
Ge           10.1980501465        8.5883560649       11.1195777407
Ge           14.2794420770        7.2412531553        9.0298071855
Ge           14.2789557891        8.6893906412       11.0489426787
Ge           10.1998268505        7.2199031135        8.9891665812
Ge            8.1311616441        5.7528182242        9.0466660310
Ge            8.2052023739       10.1125117365       11.0964549818
Ge            8.1540960390        5.7167815446       13.1718947716
Ge           -0.3273999161       10.2191102997       15.3657283077
Ge           14.2766733479        8.2889477205       15.2434105316
Ge           10.1990189381        7.2636069703       13.2760031018
Ge           10.1952227749        9.2201110145       15.0408034781
Ge           14.2764605908        7.2199009298       13.0399979213
Ge           12.2429349808        5.7172107207       13.1693235285
Ge           12.5591164089       10.2178043902       15.3611775946
End final coordinates

     Writing output data file ./out/ge.save/

     General routines

     Parallel routines

   This run was terminated on:   0:42:17  29Apr2025

   JOB DONE.