     Program PWSCF v.6.8 starts on 28Apr2025 at 22:51: 5

     R & G space division:  proc/nbgrp/npool/nimage =      56

     Reading input from surface_relax.in
Warning: card &CELL ignored
Warning: card / ignored
Warning: card &FCP ignored
Warning: card / ignored
Warning: card &RISM ignored
Warning: card / ignored

     Current dimensions of program PWSCF are:
     Max number of different atomic species (ntypx) = 10
     Max number of k-points (npk) =  40000
     Max angular momentum in pseudopotentials (lmaxx) =  4

     Using Slab Decomposition

     bravais-lattice index     =            0
     lattice parameter (alat)  =      15.4202  a.u.
     unit-cell volume          =    4515.3380 (a.u.)^3
     number of atoms/cell      =           16
     number of atomic types    =            1
     number of electrons       =       224.00
     number of Kohn-Sham states=          134
     kinetic-energy cutoff     =      60.0000  Ry
     charge density cutoff     =     240.0000  Ry
     scf convergence threshold =      1.0E-06
     mixing beta               =       0.4000
     number of iterations used =            8  plain     mixing
     energy convergence thresh.=      1.0E-04
     force convergence thresh. =      1.0E-03
     Exchange-correlation= PBE
                           (   1   4   3   4   0   0   0)
     nstep                     =          100

     celldm(1)=  15.420188  celldm(2)=   0.000000  celldm(3)=   0.000000
     celldm(4)=   0.000000  celldm(5)=   0.000000  celldm(6)=   0.000000

     crystal axes: (cart. coord. in units of alat)
               a(1) = (   1.000000   0.000000   0.000000 )
               a(2) = (   0.000000   0.500000   0.000000 )
               a(3) = (   0.000000   0.000000   2.462925 )

     reciprocal axes: (cart. coord. in units 2 pi/alat)
               b(1) = (  1.000000  0.000000  0.000000 )
               b(2) = (  0.000000  2.000000  0.000000 )
               b(3) = (  0.000000  0.000000  0.406021 )

     PseudoPot. # 1 for Ge read from file:
     ./Ge.upf
     MD5 check sum: 087fa14d6c89b52166990835c3b338da
     Pseudo is Norm-conserving + core correction, Zval = 14.0
     Generated using ONCVPSP code by D. R. Hamann
     Using radial grid of 1560 points,  6 beta functions with:
                l(1) =   0
                l(2) =   0
                l(3) =   1
                l(4) =   1
                l(5) =   2
                l(6) =   2

     atomic species   valence    mass     pseudopotential
        Ge            14.00    72.63000     Ge( 1.00)

     No symmetry found

   Cartesian axes

     site n.     atom                  positions (alat units)
         1           Ge  tau(   1) = (   0.0000735   0.0013984   0.6128769  )
         2           Ge  tau(   2) = (   0.2518326   0.0021790   0.7918341  )
         3           Ge  tau(   3) = (   0.2509326   0.2522102   0.9678801  )
         4           Ge  tau(   4) = (   0.0020590   0.2476808   1.1422038  )
         5           Ge  tau(   5) = (  -0.0012881  -0.0010927   1.3196907  )
         6           Ge  tau(   6) = (   0.2513693  -0.0008225   1.4961542  )
         7           Ge  tau(   7) = (   0.2516531   0.2496430   1.6740042  )
         8           Ge  tau(   8) = (   0.0002090   0.2493931   1.8483340  )
         9           Ge  tau(   9) = (   0.4978238  -0.0009346   0.6105285  )
        10           Ge  tau(  10) = (   0.7482506  -0.0000505   0.7900035  )
        11           Ge  tau(  11) = (   0.7489303   0.2482135   0.9641401  )
        12           Ge  tau(  12) = (   0.4986147   0.2483157   1.1440222  )
        13           Ge  tau(  13) = (   0.4983642   0.0015741   1.3200851  )
        14           Ge  tau(  14) = (   0.7524120   0.0021032   1.4976627  )
        15           Ge  tau(  15) = (   0.7501614   0.2493757   1.6723882  )
        16           Ge  tau(  16) = (   0.4997154   0.2509406   1.8516076  )

     number of k points=     6  Gaussian smearing, width (Ry)=  0.0100
                       cart. coord. in units 2pi/alat
        k(    1) = (   0.0000000   0.0000000   0.0000000), wk =   0.2500000
        k(    2) = (   0.0000000   0.5000000   0.0000000), wk =   0.5000000
        k(    3) = (   0.0000000  -1.0000000   0.0000000), wk =   0.2500000
        k(    4) = (  -0.5000000   0.0000000   0.0000000), wk =   0.2500000
        k(    5) = (  -0.5000000   0.5000000   0.0000000), wk =   0.5000000
        k(    6) = (  -0.5000000  -1.0000000   0.0000000), wk =   0.2500000

     Initial potential from superposition of free atoms

     starting charge  223.98683, renormalised to  224.00000

     negative rho (up, down):  1.191E-05 0.000E+00
     Starting wfcs are  144 randomized atomic wfcs

     Self-consistent Calculation

     iteration #  1     ecut=    60.00 Ry     beta= 0.40
     Davidson diagonalization with overlap
     ethr =  1.00E-02,  avg # of iterations =  3.0

     Threshold (ethr) on eigenvalues was too large:
     Diagonalizing with lowered threshold

     Davidson diagonalization with overlap
     ethr =  2.34E-04,  avg # of iterations =  6.0

     negative rho (up, down):  3.487E-06 0.000E+00

     total energy              =   -2857.14381286 Ry
     estimated scf accuracy    <       0.57712234 Ry

[...]

     negative rho (up, down):  2.247E-08 0.000E+00

[...]

     End of self-consistent calculation

          k = 0.0000 0.0000 0.0000 ( 35449 PWs)   bands (ev):

   -21.8670 -21.8606 -21.8537 -21.8395 -21.8373 -21.8246 -21.8220 -21.8134
   -21.8116 -21.8102 -21.8095 -21.7997 -21.7878 -21.7848 -21.7818 -21.7749
   -21.7693 -21.7509 -21.7478 -21.7462 -21.7348 -21.7241 -21.7058 -21.7038
   -21.7005 -21.6995 -21.6975 -21.6951 -21.6825 -21.6803 -21.6669 -21.6618
   -21.6454 -21.6415 -21.6383 -21.6330 -21.6308 -21.6306 -21.6285 -21.6268
   -21.6234 -21.6215 -21.6190 -21.6164 -21.6143 -21.6092 -21.6086 -21.6069
   -21.6040 -21.5991 -21.5835 -21.5716 -21.5697 -21.5658 -21.5630 -21.5559
   -21.5412 -21.5387 -21.5211 -21.5179 -21.4401 -21.4296 -21.4161 -21.4129
   -21.4112 -21.4019 -21.3973 -21.3907 -21.3756 -21.3728 -21.3690 -21.3663
   -21.3658 -21.3623 -21.3595 -21.3537 -21.3291 -21.3269 -21.3179 -21.3132
    -9.0388  -8.3711  -7.4369  -7.3877  -7.3486  -7.2713  -6.0931  -5.1684
    -5.1003  -4.5234  -3.9279  -3.7571  -3.4350  -2.7067  -0.7729  -0.0100
     0.1035   0.4359   0.4567   1.0881   1.1456   1.1559   1.2440   1.4082
     1.7083   1.7607   1.8167   1.9673   2.1738   2.3422   2.7687   3.2545
     3.7168   3.9609   4.0005   4.3123   4.3568   4.5014   4.6498   4.6681
     4.9320   4.9615   4.9812   5.0227   5.2072   5.4006   6.2731   6.7542
     6.7928   6.9795   7.1498   7.1818   7.2868   7.3549

[...]

          k =-0.5000 0.0000 0.0000 ( 35510 PWs)   bands (ev):

[...]

     the Fermi energy is     2.6167 ev

!    total energy              =   -2857.28835315 Ry
     estimated scf accuracy    <       0.00000069 Ry
     smearing contrib. (-TS)   =      -0.00614666 Ry
     internal energy E=F+TS    =   -2857.28220649 Ry

     The total energy is F=E-TS. E is the sum of the following terms:
     one-electron contribution =   -7674.49213393 Ry
     hartree contribution      =    3937.49964516 Ry
     xc contribution           =    -697.03096962 Ry
     ewald contribution        =    1576.74125190 Ry

     convergence has been achieved in  12 iterations

     Forces acting on atoms (cartesian axes, Ry/au):

     atom    1 type  1   force =     0.00094081   -0.00001570   -0.00406422
     atom    2 type  1   force =    -0.00446505   -0.00024179    0.00445152
     atom    3 type  1   force =    -0.00063580   -0.00075886   -0.00377403
     atom    4 type  1   force =    -0.00866788    0.00371826    0.00647218
     atom    5 type  1   force =     0.00709143   -0.00298753   -0.00692373
     atom    6 type  1   force =    -0.00742908    0.00134108    0.00230176
     atom    7 type  1   force =    -0.00140505   -0.00107954   -0.01062191
     atom    8 type  1   force =     0.00069851    0.00001323    0.00859840
     atom    9 type  1   force =     0.00337163   -0.00029138   -0.00663031
     atom   10 type  1   force =     0.00001785   -0.00444943    0.00107179
     atom   11 type  1   force =     0.00216130    0.00452121    0.00856145
     atom   12 type  1   force =     0.00601086    0.00909308    0.00481373
     atom   13 type  1   force =     0.00968415   -0.00899436   -0.00364159
     atom   14 type  1   force =    -0.00844198   -0.00696936   -0.00530368
     atom   15 type  1   force =    -0.00290494    0.00677829   -0.00336639
     atom   16 type  1   force =     0.00397325    0.00032280    0.00805502

     Total force =     0.036909     Total SCF correction =     0.004968
     SCF correction compared to forces is large: reduce conv_thr to get better values

     BFGS Geometry Optimization
     Energy error            =      0.0E+00 Ry
     Gradient error          =      1.1E-02 Ry/Bohr

     number of scf cycles    =   1
     number of bfgs steps    =   0

     energy             new  =   -2857.2883531524 Ry

     new trust radius        =       0.0137092177 bohr
     new conv_thr            =       0.0000010000 Ry

ATOMIC_POSITIONS (angstrom)
Ge            0.0010975506        0.0114029074        4.9989325572
Ge            2.0525944446        0.0176527984        6.4637318596
Ge            2.0472767276        2.0576364655        7.8959162949
Ge            0.0122142370        2.0230457407        9.3238215747
Ge           -0.0067580377       -0.0104977405       10.7650280659
Ge            2.0472455290       -0.0060015778       12.2098550407
Ge            2.0527490950        2.0365184148       13.6542740845
Ge            0.0020751719        2.0350576636       15.0869780307
Ge            4.0640323820       -0.0077806219        4.9784118432
Ge            6.1057436963       -0.0027669244        6.4470052435
Ge            6.1124239884        2.0278177377        7.8719257195
Ge            4.0718825115        2.0310709840        9.3377822070
Ge            4.0717823959        0.0080853073       10.7699833574
Ge            6.1352241196        0.0134739341       12.2181396971
Ge            6.1197889259        2.0384953052       13.6449270195
Ge            4.0797861272        2.0478493735       15.1134029851

     Writing output data file ./out/ge.save/
     NEW-OLD atomic charge density approx. for the potential

[...]

     Total force =     0.026955     Total SCF correction =     0.002194
     Energy error            =      1.2E-03 Ry
     Gradient error          =      8.0E-03 Ry/Bohr

[...]

     energy             old  =   -2857.2883531524 Ry
     energy             new  =   -2857.2895308291 Ry

     CASE: energy            _new < energy            _old

[...]

     Total force =     0.006439     Total SCF correction =     0.000527
     Energy error            =      5.7E-05 Ry
     Gradient error          =      2.1E-03 Ry/Bohr

[...]

     Total force =     0.004528     Total SCF correction =     0.000520
     SCF correction compared to forces is large: reduce conv_thr to get better values
     Energy error            =      5.8E-05 Ry
     Gradient error          =      1.6E-03 Ry/Bohr

     number of scf cycles    =   6
     number of bfgs steps    =   5

     energy             old  =   -2857.2911173175 Ry
     energy             new  =   -2857.2911753016 Ry

     CASE: energy            _new < energy            _old

     new trust radius        =       0.0078180457 bohr
     new conv_thr            =       0.0000000100 Ry

ATOMIC_POSITIONS (angstrom)
Ge            0.0014868325        0.0119574808        4.9832551997
Ge            2.0441149206        0.0152413203        6.4683099602
Ge            2.0429020579        2.0548739203        7.8972962764
Ge           -0.0025060024        2.0287168568        9.3383429229
Ge            0.0021708390       -0.0115094931       10.7514931369
Ge            2.0381610111       -0.0043888395       12.2053077726
Ge            2.0510400933        2.0354443754       13.6343230581
Ge            0.0033233512        2.0343468945       15.1137545830
Ge            4.0714201754       -0.0086908548        4.9582858109
Ge            6.1074070669       -0.0069867275        6.4564397690
Ge            6.1179913441        2.0333935267        7.8886785556
Ge            4.0838351270        2.0398923335        9.3478015425
Ge            4.0827255845       -0.0002417918       10.7603172233
Ge            6.1251415353        0.0046987732       12.2047129001
Ge            6.1156931041        2.0455205707       13.6342547778
Ge            4.0842518246        2.0487914221       15.1375420915

     Writing output data file ./out/ge.save/
     NEW-OLD atomic charge density approx. for the potential

     Self-consistent Calculation

[...]

     Threshold (ethr) on eigenvalues was too large:
     Diagonalizing with lowered threshold

     Davidson diagonalization with overlap
     ethr =  6.96E-09,  avg # of iterations =  4.0

[...]

     total energy              =   -2857.29122345 Ry
     estimated scf accuracy    <       0.00000004 Ry

     iteration #  8     ecut=    60.00 Ry     beta= 0.40
     Davidson diagonalization with overlap
     ethr =  1.88E-11,  avg # of iterations =  2.0

     End of self-consistent calculation

[...]

          k = 0.0000-1.0000 0.0000 ( 35284 PWs)   bands (ev):

[...]

          k =-0.5000-1.0000 0.0000 ( 35380 PWs)   bands (ev):

   -21.8764 -21.8758 -21.8754 -21.8748 -21.8447 -21.8444 -21.8439 -21.8431
   -21.7836 -21.7825 -21.7824 -21.7809 -21.7609 -21.7602 -21.7599 -21.7594
   -21.7576 -21.7567 -21.7564 -21.7560 -21.7261 -21.7255 -21.7250 -21.7246
   -21.6980 -21.6978 -21.6975 -21.6969 -21.6857 -21.6850 -21.6777 -21.6776
   -21.6706 -21.6703 -21.6675 -21.6674 -21.6449 -21.6444 -21.6358 -21.6356
   -21.6278 -21.6270 -21.6189 -21.6188 -21.6153 -21.6148 -21.6103 -21.6101
   -21.5799 -21.5793 -21.5747 -21.5746 -21.5727 -21.5726 -21.5703 -21.5702
   -21.5227 -21.5222 -21.5133 -21.5132 -21.3953 -21.3944 -21.3940 -21.3937
   -21.3913 -21.3903 -21.3900 -21.3897 -21.3479 -21.3476 -21.3474 -21.3468
   -21.3463 -21.3455 -21.3451 -21.3447 -21.3000 -21.2991 -21.2980 -21.2972
    -6.9480  -6.9477  -6.9434  -6.9417  -6.4223  -6.4217  -6.4188  -6.4142
    -4.2154  -4.2105  -4.2069  -4.2017  -3.3228  -3.3214  -3.3100  -3.3064
    -0.2842  -0.2833  -0.2756  -0.2742   0.0010   0.0063   0.0114   0.0171
     0.8337   0.8380   0.8402   0.8455   2.2728   2.2845   2.3060   2.3164
     2.4676   2.4792   2.4827   2.4928   5.0731   5.0829   5.0941   5.1107
     5.8575   5.8635   5.8767   5.8882   6.9768   6.9883   6.9953   7.0051
     7.3954   7.4115   7.4242   7.4374   8.4013   8.4231

     the Fermi energy is     2.6269 ev

!    total energy              =   -2857.29122344 Ry
     estimated scf accuracy    <          8.0E-09 Ry
     smearing contrib. (-TS)   =      -0.00562507 Ry
     internal energy E=F+TS    =   -2857.28559837 Ry

     The total energy is F=E-TS. E is the sum of the following terms:
     one-electron contribution =   -7659.88522405 Ry
     hartree contribution      =    3930.19590422 Ry
     xc contribution           =    -696.99730881 Ry
     ewald contribution        =    1569.40103026 Ry

     convergence has been achieved in   8 iterations

     Forces acting on atoms (cartesian axes, Ry/au):

     atom    1 type  1   force =    -0.00045851    0.00010557   -0.00077941
     atom    2 type  1   force =     0.00019772   -0.00038181   -0.00056441
     atom    3 type  1   force =    -0.00013324   -0.00037801    0.00008775
     atom    4 type  1   force =     0.00031790    0.00033504    0.00004792
     atom    5 type  1   force =    -0.00034752    0.00033852    0.00022572
     atom    6 type  1   force =     0.00034920    0.00002190   -0.00023506
     atom    7 type  1   force =    -0.00004253    0.00005692    0.00058860
     atom    8 type  1   force =    -0.00003419   -0.00013168    0.00077314
     atom    9 type  1   force =     0.00030654   -0.00009284   -0.00035971
     atom   10 type  1   force =     0.00015284    0.00023407    0.00010208
     atom   11 type  1   force =     0.00014302   -0.00000934   -0.00017594
     atom   12 type  1   force =    -0.00029997    0.00006539   -0.00044806
     atom   13 type  1   force =    -0.00032613   -0.00000512   -0.00028241
     atom   14 type  1   force =     0.00023268    0.00008613    0.00011037
     atom   15 type  1   force =     0.00017530   -0.00033466    0.00042215
     atom   16 type  1   force =    -0.00023312    0.00008994    0.00048728

     Total force =     0.002167     Total SCF correction =     0.000544
     SCF correction compared to forces is large: reduce conv_thr to get better values
     Energy error            =      4.8E-05 Ry
     Gradient error          =      7.8E-04 Ry/Bohr

     bfgs converged in   7 scf cycles and   6 bfgs steps
     (criteria: energy <  1.0E-04 Ry, force <  1.0E-03 Ry/Bohr)

     End of BFGS Geometry Optimization

     Final energy             =   -2857.2912234414 Ry

     File ./out/ge.bfgs deleted, as requested
Begin final coordinates

ATOMIC_POSITIONS (angstrom)
Ge            0.0014868325        0.0119574808        4.9832551997
Ge            2.0441149206        0.0152413203        6.4683099602
Ge            2.0429020579        2.0548739203        7.8972962764
Ge           -0.0025060024        2.0287168568        9.3383429229
Ge            0.0021708390       -0.0115094931       10.7514931369
Ge            2.0381610111       -0.0043888395       12.2053077726
Ge            2.0510400933        2.0354443754       13.6343230581
Ge            0.0033233512        2.0343468945       15.1137545830
Ge            4.0714201754       -0.0086908548        4.9582858109
Ge            6.1074070669       -0.0069867275        6.4564397690
Ge            6.1179913441        2.0333935267        7.8886785556
Ge            4.0838351270        2.0398923335        9.3478015425
Ge            4.0827255845       -0.0002417918       10.7603172233
Ge            6.1251415353        0.0046987732       12.2047129001
Ge            6.1156931041        2.0455205707       13.6342547778
Ge            4.0842518246        2.0487914221       15.1375420915
End final coordinates

     Writing output data file ./out/ge.save/

     General routines

     Parallel routines

   This run was terminated on:  22:53:40  28Apr2025

   JOB DONE.