     Program PWSCF v.6.8 starts on 28Apr2025 at 10:44:46

     R & G space division:  proc/nbgrp/npool/nimage =      56

     Reading input from surface_relax.in
Warning: card &CELL ignored
Warning: card / ignored
Warning: card &FCP ignored
Warning: card / ignored
Warning: card &RISM ignored
Warning: card / ignored

     Current dimensions of program PWSCF are:
     Max number of different atomic species (ntypx) = 10
     Max number of k-points (npk) =  40000
     Max angular momentum in pseudopotentials (lmaxx) =  4
     Found symmetry operation: I + (  0.5000  0.0000  0.0000)
     This is a supercell, fractional translations are disabled

     Using Slab Decomposition

     bravais-lattice index     =            0
     lattice parameter (alat)  =      15.1659  a.u.
     unit-cell volume          =    4194.4686 (a.u.)^3
     number of atoms/cell      =           16
     number of atomic types    =            1
     number of electrons       =       224.00
     number of Kohn-Sham states=          134
     kinetic-energy cutoff     =      60.0000  Ry
     charge density cutoff     =     240.0000  Ry
     scf convergence threshold =      1.0E-06
     mixing beta               =       0.4000
     number of iterations used =            8  plain     mixing
     energy convergence thresh.=      1.0E-04
     force convergence thresh. =      1.0E-03
     Exchange-correlation= PBE
                           (   1   4   3   4   0   0   0)
     nstep                     =           50

     celldm(1)=  15.165913  celldm(2)=   0.000000  celldm(3)=   0.000000
     celldm(4)=   0.000000  celldm(5)=   0.000000  celldm(6)=   0.000000

     crystal axes: (cart. coord. in units of alat)
               a(1) = (   1.000000   0.000000   0.000000 )
               a(2) = (   0.250000   0.433013   0.000000 )
               a(3) = (   0.000000   0.000000   2.776966 )

     reciprocal axes: (cart. coord. in units 2 pi/alat)
               b(1) = (  1.000000 -0.577351  0.000000 )
               b(2) = (  0.000000  2.309401  0.000000 )
               b(3) = (  0.000000  0.000000  0.360105 )

     PseudoPot. # 1 for Ge read from file:
     ./Ge.upf
     MD5 check sum: 087fa14d6c89b52166990835c3b338da
     Pseudo is Norm-conserving + core correction, Zval = 14.0
     Generated using ONCVPSP code by D. R. Hamann
     Using radial grid of 1560 points,  6 beta functions with:
                l(1) =   0
                l(2) =   0
                l(3) =   1
                l(4) =   1
                l(5) =   2
                l(6) =   2

     atomic species   valence    mass     pseudopotential
        Ge            14.00    72.63000     Ge( 1.00)

     No symmetry found

   Cartesian axes

     site n.     atom                  positions (alat units)
         1           Ge  tau(   1) = (   0.1250001   0.0721688   0.9292038  )
         2           Ge  tau(   2) = (   0.1250000   0.0721688   0.6230176  )
         3           Ge  tau(   3) = (   0.3750002   0.2165064   1.3374521  )
         4           Ge  tau(   4) = (   0.3750001   0.2165064   1.0312659  )
         5           Ge  tau(   5) = (   0.6250003   0.3608439   1.7457004  )
         6           Ge  tau(   6) = (   0.6250002   0.3608439   1.4395142  )
         7           Ge  tau(   7) = (   0.1250003   0.0721688   2.1539487  )
         8           Ge  tau(   8) = (   0.1250002   0.0721688   1.8477625  )
         9           Ge  tau(   9) = (   0.6250001   0.0721688   0.9292038  )
        10           Ge  tau(  10) = (   0.6250000   0.0721688   0.6230176  )
        11           Ge  tau(  11) = (   0.8750002   0.2165064   1.3374521  )
        12           Ge  tau(  12) = (   0.8750001   0.2165064   1.0312659  )
        13           Ge  tau(  13) = (   1.1250003   0.3608439   1.7457004  )
        14           Ge  tau(  14) = (   1.1250002   0.3608439   1.4395142  )
        15           Ge  tau(  15) = (   0.6250003   0.0721688   2.1539487  )
        16           Ge  tau(  16) = (   0.6250002   0.0721688   1.8477625  )

     number of k points=     6  Gaussian smearing, width (Ry)=  0.0100
                       cart. coord. in units 2pi/alat
        k(    1) = (   0.0000000   0.0000000   0.0000000), wk =   0.2500000
        k(    2) = (   0.0000000   0.5773503   0.0000000), wk =   0.5000000
        k(    3) = (   0.0000000  -1.1547005   0.0000000), wk =   0.2500000
        k(    4) = (  -0.5000000   0.2886753   0.0000000), wk =   0.2500000
        k(    5) = (  -0.5000000  -0.8660253   0.0000000), wk =   0.2500000
        k(    6) = (  -0.5000000  -0.2886750   0.0000000), wk =   0.5000000

     Initial potential from superposition of free atoms

     starting charge  223.98683, renormalised to  224.00000

     negative rho (up, down):  9.942E-06 0.000E+00
     Starting wfcs are  144 randomized atomic wfcs

     Self-consistent Calculation

     iteration #  1     ecut=    60.00 Ry     beta= 0.40
     Davidson diagonalization with overlap
     ethr =  1.00E-02,  avg # of iterations =  3.0

     Threshold (ethr) on eigenvalues was too large:
     Diagonalizing with lowered threshold

     Davidson diagonalization with overlap
     ethr =  3.79E-04,  avg # of iterations =  3.2

     negative rho (up, down):  2.763E-06 0.000E+00

     total energy              =   -2856.87853701 Ry
     estimated scf accuracy    <       0.92091194 Ry

[...]

     End of self-consistent calculation

          k = 0.0000 0.0000 0.0000 ( 32973 PWs)   bands (ev):

   -21.4116 -21.4111 -21.4111 -21.4106 -21.4098 -21.4098 -21.4070 -21.4063
   -21.2885 -21.2846 -21.2834 -21.2819 -21.2819 -21.2786 -21.2781 -21.2779
   -21.2775 -21.2773 -21.2773 -21.2761 -21.2758 -21.2750 -21.2750 -21.2734
   -21.2713 -21.2446 -21.2351 -21.2136 -21.2136 -21.2084 -21.1959 -21.1909
   -21.1759 -21.1759 -21.1653 -21.1626 -21.1626 -21.1579 -21.1444 -21.1415
   -21.1274 -21.1189 -21.1189 -21.1176 -21.1176 -21.1109 -21.0930 -21.0896
   -21.0798 -21.0542 -21.0524 -21.0205 -21.0205 -21.0194 -21.0097 -20.9941
   -20.9867 -20.9867 -20.9846 -20.9628 -20.8745 -20.8740 -20.8579 -20.8573
   -20.8532 -20.8532 -20.8529 -20.8529 -20.8424 -20.8387 -20.8312 -20.8310
   -20.8113 -20.8113 -20.8085 -20.8085 -20.8067 -20.8060 -20.8048 -20.8038
    -8.7944  -8.2255  -7.4890  -6.8033  -6.4334  -5.8949  -5.1428  -5.0243
    -4.7534  -4.2867  -3.7860  -3.0824  -3.0176  -2.4992  -0.6314   0.2244
     0.5077   0.8588   1.2890   1.3843   1.8197   1.9727   2.0675   2.3561
     2.4697   2.4697   2.7974   2.9018   2.9018   3.1212   3.3952   3.3952
     3.9904   4.3592   4.3870   4.6661   4.9596   5.1030   5.1687   5.2376
     5.7006   5.8104   5.8104   6.0123   6.0123   6.3185   7.0444   7.0599
     7.0600   7.2302   7.5751   7.5964   7.5964   7.6372

[...]

          k =-0.5000 0.2887 0.0000 ( 32960 PWs)   bands (ev):

[...]

     the Fermi energy is     3.2448 ev

!    total energy              =   -2857.22051046 Ry
     estimated scf accuracy    <       0.00000017 Ry
     smearing contrib. (-TS)   =      -0.00083680 Ry
     internal energy E=F+TS    =   -2857.21967365 Ry

     The total energy is F=E-TS. E is the sum of the following terms:
     one-electron contribution =   -8567.75864096 Ry
     hartree contribution      =    4388.28596670 Ry
     xc contribution           =    -697.06128161 Ry
     ewald contribution        =    2019.31428222 Ry

     convergence has been achieved in  11 iterations

     Forces acting on atoms (cartesian axes, Ry/au):

     atom    1 type  1   force =     0.00001417    0.00000011   -0.01041767
     atom    2 type  1   force =     0.00000436   -0.00000213   -0.01357479
     atom    3 type  1   force =    -0.00000591    0.00000572   -0.00762676
     atom    4 type  1   force =    -0.00000805    0.00000584    0.01361134
     atom    5 type  1   force =     0.00000988   -0.00001266   -0.01350700
     atom    6 type  1   force =     0.00001657   -0.00000925    0.00742590
     atom    7 type  1   force =    -0.00000271    0.00000059    0.01372782
     atom    8 type  1   force =    -0.00000048    0.00000100    0.01035354
     atom    9 type  1   force =    -0.00001273    0.00000513   -0.01041519
     atom   10 type  1   force =    -0.00000529    0.00000348   -0.01357263
     atom   11 type  1   force =     0.00000849   -0.00000558   -0.00762446
     atom   12 type  1   force =     0.00000806   -0.00000701    0.01361426
     atom   13 type  1   force =    -0.00000880    0.00000398   -0.01350800
     atom   14 type  1   force =    -0.00001687    0.00000076    0.00742710
     atom   15 type  1   force =     0.00000026    0.00000025    0.01372638
     atom   16 type  1   force =    -0.00000098    0.00000976    0.01036016

     Total force =     0.046250     Total SCF correction =     0.001419

     BFGS Geometry Optimization
     Energy error            =      0.0E+00 Ry
     Gradient error          =      1.4E-02 Ry/Bohr

     number of scf cycles    =   1
     number of bfgs steps    =   0

     energy             new  =   -2857.2205104567 Ry

     new trust radius        =       0.0137278207 bohr
     new conv_thr            =       0.0000010000 Ry

ATOMIC_POSITIONS (angstrom)
Ge            1.0031900972        0.5791874951        7.4517712336
Ge            1.0031845008        0.5791862519        4.9928165281
Ge            3.0095442596        1.7375652850       10.7296268257
Ge            3.0095427227        1.7375652930        8.2835815131
Ge            5.0159174027        2.8959303829       14.0028938377
Ge            5.0159205382        2.8959321304       11.5566870227
Ge            1.0031827881        0.5791879800       17.2936845887
Ge            1.0031835620        0.5791881382       14.8346149701
Ge            5.0159037189        0.5791901541        7.4517725471
Ge            5.0159072512        0.5791892251        4.9928176730
Ge            7.0222797358        1.7375593094       10.7296280436
Ge            7.0222791007        1.7375584940        8.2835830583
Ge            9.0286353760        2.8959391871       14.0028933112
Ge            9.0286306958        2.8959374265       11.5566876605
Ge            5.0159122150        0.5791878028       17.2936838289
Ge            5.0159111509        0.5791927739       14.8346184694

     Writing output data file ./out/ge.save/
     NEW-OLD atomic charge density approx. for the potential

[...]

     Total force =     0.036376     Total SCF correction =     0.002851
     Energy error            =      1.9E-03 Ry
     Gradient error          =      1.3E-02 Ry/Bohr

[...]

     energy             old  =   -2857.2205104567 Ry
     energy             new  =   -2857.2224084354 Ry

     CASE: energy            _new < energy            _old

[...]

     negative rho (up, down):  7.013E-08 0.000E+00

[...]

     Total force =     0.013977     Total SCF correction =     0.000278
     Energy error            =      5.2E-04 Ry
     Gradient error          =      6.2E-03 Ry/Bohr

[...]

     Total force =     0.006322     Total SCF correction =     0.000849
     SCF correction compared to forces is large: reduce conv_thr to get better values
     Energy error            =      2.1E-04 Ry
     Gradient error          =      2.4E-03 Ry/Bohr

     number of scf cycles    =  13
     number of bfgs steps    =  12

     energy             old  =   -2857.2346133425 Ry
     energy             new  =   -2857.2348264353 Ry

     CASE: energy            _new < energy            _old

     new trust radius        =       0.0052168945 bohr
     new conv_thr            =       0.0000000213 Ry

ATOMIC_POSITIONS (angstrom)
Ge            1.0032972808        0.5792257540        7.2962798588
Ge            1.0034560149        0.5790637774        4.8034431821
Ge            3.0095160754        1.7376178737       10.7019774123
Ge            3.0095272807        1.7376681265        8.2181766209
Ge            5.0159661561        2.8958995006       14.0681969425
Ge            5.0160198659        2.8959065149       11.5845446505
Ge            1.0033452693        0.5791020642       17.4828707219
Ge            1.0032469289        0.5791460251       14.9900467293
Ge            5.0157981199        0.5792048981        7.2963743833
Ge            5.0156345151        0.5793556035        4.8035345843
Ge            7.0223121931        1.7374343473       10.7017590065
Ge            7.0222965416        1.7374967661        8.2179418237
Ge            9.0285854973        2.8959544206       14.0683774483
Ge            9.0285373149        2.8958811518       11.5847131822
Ge            5.0157386642        0.5793067434       17.4829723562
Ge            5.0158473975        0.5792337624       14.9901522089

     Writing output data file ./out/ge.save/
     NEW-OLD atomic charge density approx. for the potential

     Self-consistent Calculation

[...]

     Threshold (ethr) on eigenvalues was too large:
     Diagonalizing with lowered threshold

     Davidson diagonalization with overlap
     ethr =  5.91E-09,  avg # of iterations =  3.8

[...]

     total energy              =   -2857.23487492 Ry
     estimated scf accuracy    <       0.00000003 Ry

     iteration #  8     ecut=    60.00 Ry     beta= 0.40
     Davidson diagonalization with overlap
     ethr =  1.15E-11,  avg # of iterations =  2.0

     End of self-consistent calculation

[...]

          k = 0.0000-1.1547 0.0000 ( 32908 PWs)   bands (ev):

[...]

          k =-0.5000-0.2887 0.0000 ( 32917 PWs)   bands (ev):

   -21.4718 -21.4695 -21.4692 -21.4678 -21.4671 -21.4667 -21.4653 -21.4640
   -21.3425 -21.3421 -21.3418 -21.3413 -21.3410 -21.3406 -21.3393 -21.3386
   -21.3244 -21.3235 -21.3229 -21.3220 -21.1614 -21.1503 -21.1499 -21.1418
   -21.1284 -21.1147 -21.0848 -21.0622 -21.0535 -21.0527 -21.0420 -21.0401
   -21.0323 -21.0294 -21.0212 -21.0198 -21.0161 -21.0076 -21.0003 -20.9981
   -20.9816 -20.9730 -20.9698 -20.9644 -20.9573 -20.9527 -20.9514 -20.9464
   -20.9411 -20.9390 -20.9380 -20.9307 -20.9188 -20.9133 -20.8796 -20.8785
   -20.8670 -20.8567 -20.8556 -20.8392 -20.7608 -20.7595 -20.7498 -20.7483
   -20.7336 -20.7329 -20.7329 -20.7313 -20.7164 -20.7160 -20.7151 -20.7139
   -20.6994 -20.6984 -20.6914 -20.6906 -20.6854 -20.6845 -20.6787 -20.6783
    -7.8255  -7.2752  -6.6616  -6.6377  -6.1894  -5.6251  -4.8483  -4.6989
    -4.3996  -4.0918  -3.4046  -2.7799  -2.7235  -2.5581  -1.4942  -0.6697
     0.1750   0.2201   0.2251   0.3355   0.6275   1.0780   1.3229   1.8124
     1.9977   2.1783   2.3355   2.3852   2.6330   2.8277   2.8729   2.9136
     3.5740   3.8751   3.9472   4.0733   5.1029   5.5278   5.5443   5.6169
     5.7579   6.0541   6.1022   6.4363   6.4942   7.0506   7.3353   7.4844
     7.9613   8.0186   8.2337   8.3531   8.3916   8.8185

     the Fermi energy is     3.3828 ev

!    total energy              =   -2857.23487492 Ry
     estimated scf accuracy    <          8.2E-10 Ry
     smearing contrib. (-TS)   =      -0.00108456 Ry
     internal energy E=F+TS    =   -2857.23379036 Ry

     The total energy is F=E-TS. E is the sum of the following terms:
     one-electron contribution =   -7905.43691500 Ry
     hartree contribution      =    4057.80132688 Ry
     xc contribution           =    -696.81720286 Ry
     ewald contribution        =    1687.21900062 Ry

     convergence has been achieved in   8 iterations

     Forces acting on atoms (cartesian axes, Ry/au):

     atom    1 type  1   force =     0.00000274   -0.00000084    0.00022669
     atom    2 type  1   force =     0.00003308   -0.00001768   -0.00046134
     atom    3 type  1   force =    -0.00000021    0.00000005   -0.00030797
     atom    4 type  1   force =    -0.00000070    0.00000020    0.00056308
     atom    5 type  1   force =     0.00000115   -0.00000230   -0.00051811
     atom    6 type  1   force =     0.00000115   -0.00000097    0.00027274
     atom    7 type  1   force =     0.00002202   -0.00001260    0.00046760
     atom    8 type  1   force =     0.00000023   -0.00000041   -0.00023893
     atom    9 type  1   force =    -0.00000262    0.00000135    0.00022444
     atom   10 type  1   force =    -0.00003296    0.00001850   -0.00046482
     atom   11 type  1   force =     0.00000032    0.00000019   -0.00030230
     atom   12 type  1   force =     0.00000060   -0.00000034    0.00056565
     atom   13 type  1   force =    -0.00000103   -0.00000044   -0.00052004
     atom   14 type  1   force =    -0.00000159    0.00000077    0.00026883
     atom   15 type  1   force =    -0.00002178    0.00001299    0.00046414
     atom   16 type  1   force =    -0.00000040    0.00000153   -0.00023966

     Total force =     0.001610     Total SCF correction =     0.000174
     SCF correction compared to forces is large: reduce conv_thr to get better values
     Energy error            =      4.8E-05 Ry
     Gradient error          =      5.7E-04 Ry/Bohr

     bfgs converged in  14 scf cycles and  13 bfgs steps
     (criteria: energy <  1.0E-04 Ry, force <  1.0E-03 Ry/Bohr)

     End of BFGS Geometry Optimization

     Final energy             =   -2857.2348749196 Ry

     File ./out/ge.bfgs deleted, as requested
Begin final coordinates

ATOMIC_POSITIONS (angstrom)
Ge            1.0032972808        0.5792257540        7.2962798588
Ge            1.0034560149        0.5790637774        4.8034431821
Ge            3.0095160754        1.7376178737       10.7019774123
Ge            3.0095272807        1.7376681265        8.2181766209
Ge            5.0159661561        2.8958995006       14.0681969425
Ge            5.0160198659        2.8959065149       11.5845446505
Ge            1.0033452693        0.5791020642       17.4828707219
Ge            1.0032469289        0.5791460251       14.9900467293
Ge            5.0157981199        0.5792048981        7.2963743833
Ge            5.0156345151        0.5793556035        4.8035345843
Ge            7.0223121931        1.7374343473       10.7017590065
Ge            7.0222965416        1.7374967661        8.2179418237
Ge            9.0285854973        2.8959544206       14.0683774483
Ge            9.0285373149        2.8958811518       11.5847131822
Ge            5.0157386642        0.5793067434       17.4829723562
Ge            5.0158473975        0.5792337624       14.9901522089
End final coordinates

     Writing output data file ./out/ge.save/

     General routines

     Parallel routines

   This run was terminated on:  10:49:31  28Apr2025

   JOB DONE.