     Program PWSCF v.6.8 starts on 28Apr2025 at 15: 8:56

     R & G space division:  proc/nbgrp/npool/nimage =      56

     Reading input from surface_relax.in
Warning: card &CELL ignored
Warning: card / ignored
Warning: card &FCP ignored
Warning: card / ignored
Warning: card &RISM ignored
Warning: card / ignored

     Current dimensions of program PWSCF are:
     Max number of different atomic species (ntypx) = 10
     Max number of k-points (npk) =  40000
     Max angular momentum in pseudopotentials (lmaxx) =  4

     File ./out/ge.update deleted, as requested

     File ./out/ge.bfgs deleted, as requested

     Using Slab Decomposition

     bravais-lattice index     =            0
     lattice parameter (alat)  =      21.4478  a.u.
     unit-cell volume          =    8662.9337 (a.u.)^3
     number of atoms/cell      =           32
     number of atomic types    =            1
     number of electrons       =       448.00
     number of Kohn-Sham states=          269
     kinetic-energy cutoff     =      60.0000  Ry
     charge density cutoff     =     240.0000  Ry
     scf convergence threshold =      1.0E-06
     mixing beta               =       0.4000
     number of iterations used =            8  plain     mixing
     energy convergence thresh.=      1.0E-04
     force convergence thresh. =      1.0E-03
     Exchange-correlation= PBE
                           (   1   4   3   4   0   0   0)
     nstep                     =           50

     celldm(1)=  21.447841  celldm(2)=   0.000000  celldm(3)=   0.000000
     celldm(4)=   0.000000  celldm(5)=   0.000000  celldm(6)=   0.000000

     crystal axes: (cart. coord. in units of alat)
               a(1) = (   1.000000   0.000000   0.000000 )
               a(2) = (   0.000000   0.500000   0.000000 )
               a(3) = (   0.000000   0.000000   1.756080 )

     reciprocal axes: (cart. coord. in units 2 pi/alat)
               b(1) = (  1.000000  0.000000  0.000000 )
               b(2) = (  0.000000  2.000000  0.000000 )
               b(3) = (  0.000000  0.000000  0.569450 )

     PseudoPot. # 1 for Ge read from file:
     ./Ge.upf
     MD5 check sum: 087fa14d6c89b52166990835c3b338da
     Pseudo is Norm-conserving + core correction, Zval = 14.0
     Generated using ONCVPSP code by D. R. Hamann
     Using radial grid of 1560 points,  6 beta functions with:
                l(1) =   0
                l(2) =   0
                l(3) =   1
                l(4) =   1
                l(5) =   2
                l(6) =   2

     atomic species   valence    mass     pseudopotential
        Ge            14.00    72.63000     Ge( 1.00)

     No symmetry found

   Cartesian axes

     site n.     atom                  positions (alat units)
         1           Ge  tau(   1) = (  -0.0622632   0.3120497   0.4755391  )
         2           Ge  tau(   2) = (   0.1328577   0.3778863   0.5502718  )
         3           Ge  tau(   3) = (   0.2840956  -0.0342629   0.4004787  )
         4           Ge  tau(   4) = (   0.3729332   0.1175271   0.5497826  )
         5           Ge  tau(   5) = (   0.0055201   0.0046259   0.6849924  )
         6           Ge  tau(   6) = (   0.1285122   0.1232009   0.8196122  )
         7           Ge  tau(   7) = (   0.2467589   0.2459818   0.6843949  )
         8           Ge  tau(   8) = (   0.3734555   0.3779809   0.8070796  )
         9           Ge  tau(   9) = (   0.4980262   0.2527662   0.9348774  )
        10           Ge  tau(  10) = (   0.1209585   0.3708532   1.0700725  )
        11           Ge  tau(  11) = (   0.2528327  -0.0020405   0.9476184  )
        12           Ge  tau(  12) = (   0.3799657   0.1295992   1.0704906  )
        13           Ge  tau(  13) = (   0.4933938  -0.0018290   1.2054733  )
        14           Ge  tau(  14) = (   0.1885059   0.0638859   1.2796592  )
        15           Ge  tau(  15) = (   0.2529137   0.2584433   1.2047499  )
        16           Ge  tau(  16) = (   0.3409997   0.4103792   1.3543666  )
        17           Ge  tau(  17) = (   0.4372319   0.3130085   0.4757545  )
        18           Ge  tau(  18) = (   0.6328102   0.3777761   0.5508948  )
        19           Ge  tau(  19) = (   0.7846050  -0.0341815   0.4012335  )
        20           Ge  tau(  20) = (   0.8730215   0.1170249   0.5506737  )
        21           Ge  tau(  21) = (   0.5051669   0.0050165   0.6845224  )
        22           Ge  tau(  22) = (   0.6278516   0.1229349   0.8202501  )
        23           Ge  tau(  23) = (   0.7464383   0.2458372   0.6849755  )
        24           Ge  tau(  24) = (   0.8732161   0.3779183   0.8074239  )
        25           Ge  tau(  25) = (  -0.0019052   0.2528668   0.9344403  )
        26           Ge  tau(  26) = (   0.6209671   0.3708300   1.0707996  )
        27           Ge  tau(  27) = (   0.7525745  -0.0021162   0.9481012  )
        28           Ge  tau(  28) = (   0.8799060   0.1299391   1.0700148  )
        29           Ge  tau(  29) = (  -0.0062691  -0.0017953   1.2041383  )
        30           Ge  tau(  30) = (   0.6886614   0.0634531   1.2795734  )
        31           Ge  tau(  31) = (   0.7533336   0.2581830   1.2048284  )
        32           Ge  tau(  32) = (   0.8416686   0.4105102   1.3537873  )

     number of k points=     2  Gaussian smearing, width (Ry)=  0.0100
                       cart. coord. in units 2pi/alat
        k(    1) = (   0.0000000   0.0000000   0.0000000), wk =   1.0000000
        k(    2) = (   0.0000000  -1.0000000   0.0000000), wk =   1.0000000

     Initial potential from superposition of free atoms

     starting charge  447.97367, renormalised to  448.00000

     negative rho (up, down):  2.627E-05 0.000E+00
     Starting wfcs are  288 randomized atomic wfcs

     Self-consistent Calculation

     iteration #  1     ecut=    60.00 Ry     beta= 0.40
     Davidson diagonalization with overlap
     ethr =  1.00E-02,  avg # of iterations =  3.0

     Threshold (ethr) on eigenvalues was too large:
     Diagonalizing with lowered threshold

     Davidson diagonalization with overlap
     ethr =  1.80E-04,  avg # of iterations =  8.5

     negative rho (up, down):  1.022E-05 0.000E+00

     total energy              =   -5714.71368358 Ry
     estimated scf accuracy    <       0.88466498 Ry

[...]

     negative rho (up, down):  3.708E-08 0.000E+00

[...]

     End of self-consistent calculation

          k = 0.0000 0.0000 0.0000 ( 67991 PWs)   bands (ev):

   -21.5304 -21.5251 -21.5237 -21.5230 -21.4922 -21.4874 -21.4858 -21.4847
   -21.4546 -21.4486 -21.4476 -21.4465 -21.4210 -21.4176 -21.4158 -21.4145
   -21.3915 -21.3875 -21.3855 -21.3846 -21.3165 -21.3137 -21.3115 -21.3099
   -21.3089 -21.3084 -21.3083 -21.3062 -21.3048 -21.3025 -21.2999 -21.2970
   -21.2959 -21.2955 -21.2939 -21.2899 -21.2816 -21.2749 -21.2743 -21.2718
   -21.2697 -21.2678 -21.2663 -21.2647 -21.2624 -21.2507 -21.2480 -21.2370
   -21.2335 -21.2247 -21.2246 -21.2217 -21.2212 -21.2190 -21.2174 -21.2166
   -21.2133 -21.2114 -21.2110 -21.2068 -21.2058 -21.1996 -21.1972 -21.1940
   -21.1899 -21.1886 -21.1882 -21.1844 -21.1840 -21.1812 -21.1769 -21.1753
   -21.1746 -21.1731 -21.1684 -21.1678 -21.1674 -21.1667 -21.1639 -21.1632
   -21.1620 -21.1603 -21.1526 -21.1520 -21.1474 -21.1468 -21.1446 -21.1422
   -21.1416 -21.1387 -21.1373 -21.1370 -21.1328 -21.1310 -21.1297 -21.1279
   -21.1272 -21.1262 -21.1253 -21.1198 -21.1167 -21.1148 -21.1099 -21.1083
   -21.1074 -21.1032 -21.0996 -21.0982 -21.0917 -21.0898 -21.0872 -21.0787
   -21.0760 -21.0730 -21.0718 -21.0702 -21.0643 -21.0633 -21.0604 -21.0581
   -21.0560 -21.0399 -21.0389 -21.0381 -21.0300 -21.0283 -21.0221 -21.0173
   -21.0074 -21.0060 -20.9950 -20.9925 -20.9876 -20.9862 -20.9835 -20.9803
   -20.9796 -20.9783 -20.9745 -20.9738 -20.9723 -20.9714 -20.9700 -20.9692
   -20.9610 -20.9592 -20.9488 -20.9474 -20.9452 -20.9383 -20.9382 -20.9372
   -20.9357 -20.9335 -20.9316 -20.9302 -20.9292 -20.9279 -20.9271 -20.9253
    -8.6978  -8.1898  -7.7815  -7.7272  -7.3520  -7.2739  -7.1272  -6.4718
    -6.2120  -5.9425  -5.4543  -5.1183  -5.0551  -5.0512  -5.0460  -5.0264
    -4.8520  -4.8468  -4.5073  -4.4809  -4.0728  -3.7841  -3.6821  -3.6554
    -3.1262  -2.8131  -2.6362  -2.0671  -1.5229  -1.2267  -1.1775  -0.3339
    -0.2694  -0.2233  -0.2184  -0.0695   0.0103   0.0528   0.1725   0.3831
     0.6200   0.7300   0.7448   0.8516   0.9071   1.0520   1.1170   1.1214
     1.4315   1.5395   1.6265   1.6594   1.6711   1.7807   1.8457   1.9452
     2.0532   2.2261   2.3480   2.4542   2.7367   2.7499   2.9959   3.0308
     3.1887   3.5154   4.0106   4.1157   4.4222   4.5978   4.7557   4.7829
     4.9338   5.0198   5.0617   5.0950   5.1523   5.2895   5.4639   5.4758
     5.6908   5.7135   5.7590   5.9151   6.0598   6.0991   6.1183   6.3491
     6.5137   6.6435   6.6678   6.6755   6.8094   7.1030   7.1111   7.1326
     7.4392   7.4494   7.6102   7.8176   7.8706   8.1594   8.2230   8.2768
     8.3034   8.4311   8.4714   8.4910   8.4983

[...]

     the Fermi energy is     3.2876 ev

!    total energy              =   -5714.86796356 Ry
     estimated scf accuracy    <       0.00000021 Ry
     smearing contrib. (-TS)   =      -0.00821701 Ry
     internal energy E=F+TS    =   -5714.85974655 Ry

     The total energy is F=E-TS. E is the sum of the following terms:
     one-electron contribution =  -15234.13733464 Ry
     hartree contribution      =    7824.72615828 Ry
     xc contribution           =   -1394.59069320 Ry
     ewald contribution        =    3089.14212301 Ry

     convergence has been achieved in  14 iterations

     Forces acting on atoms (cartesian axes, Ry/au):

     atom    1 type  1   force =    -0.00034400    0.00070598    0.00029148
     atom    2 type  1   force =    -0.00079697   -0.00086519    0.00031094
     atom    3 type  1   force =    -0.00005936    0.00100176    0.00005685
     atom    4 type  1   force =    -0.00045644    0.00003207   -0.00043709
     atom    5 type  1   force =    -0.00068923    0.00023275   -0.00060820
     atom    6 type  1   force =    -0.00067546   -0.00006713    0.00179790
     atom    7 type  1   force =    -0.00068050    0.00122060   -0.00099360
     atom    8 type  1   force =     0.00008197   -0.00038276    0.00023003
     atom    9 type  1   force =    -0.00005621    0.00093720    0.00070541
     atom   10 type  1   force =    -0.00020847   -0.00003068   -0.00051136
     atom   11 type  1   force =     0.00012279    0.00024350    0.00048572
     atom   12 type  1   force =    -0.00013937   -0.00011756    0.00069902
     atom   13 type  1   force =     0.00042619   -0.00024314   -0.00077801
     atom   14 type  1   force =    -0.00048852   -0.00126971   -0.00035015
     atom   15 type  1   force =     0.00177690    0.00025840    0.00000721
     atom   16 type  1   force =     0.00064638   -0.00085663    0.00029871
     atom   17 type  1   force =     0.00111666   -0.00012059   -0.00017983
     atom   18 type  1   force =    -0.00074818   -0.00015066   -0.00122781
     atom   19 type  1   force =    -0.00066660   -0.00013096   -0.00029393
     atom   20 type  1   force =    -0.00044647    0.00119793   -0.00026328
     atom   21 type  1   force =    -0.00031074    0.00052653    0.00022883
     atom   22 type  1   force =     0.00054436   -0.00014511    0.00030105
     atom   23 type  1   force =    -0.00037161    0.00022178   -0.00067240
     atom   24 type  1   force =     0.00000094    0.00026872   -0.00045204
     atom   25 type  1   force =     0.00065192   -0.00067967    0.00034106
     atom   26 type  1   force =    -0.00094744   -0.00025971   -0.00032434
     atom   27 type  1   force =     0.00010146    0.00024565   -0.00022777
     atom   28 type  1   force =     0.00044141   -0.00025978    0.00059451
     atom   29 type  1   force =     0.00007056    0.00004435    0.00055249
     atom   30 type  1   force =    -0.00014360   -0.00073097   -0.00017513
     atom   31 type  1   force =     0.00120187    0.00018739    0.00017795
     atom   32 type  1   force =     0.00104577   -0.00101436    0.00041577

     Total force =     0.006003     Total SCF correction =     0.003285
     SCF correction compared to forces is large: reduce conv_thr to get better values

     BFGS Geometry Optimization
     Energy error            =      0.0E+00 Ry
     Gradient error          =      1.8E-03 Ry/Bohr

     number of scf cycles    =   1
     number of bfgs steps    =   0

     energy             new  =   -5714.8679635635 Ry

     new trust radius        =       0.0019217660 bohr
     new conv_thr            =       0.0000010000 Ry

ATOMIC_POSITIONS (angstrom)
Ge           -0.7068514953        3.5420466356        5.3973843322
Ge            1.5074743626        4.2884410924        6.2455886088
Ge            3.2243704127       -0.3883440456        4.5453467498
Ge            4.2324420581        1.3339152850        6.2396410528
Ge            0.0622869010        0.0526259581        7.7741422518
Ge            1.4582181942        1.3982590790        9.3033107553
Ge            2.8002815792        2.7924679567        7.7671567900
Ge            4.2386548512        4.2897701093        9.1602393977
Ge            5.6524228758        2.8693188908       10.6109586977
Ge            1.3727328602        4.2090596812       12.1447397660
Ge            2.8696428315       -0.0230303757       10.7554491701
Ge            4.3124258014        1.4708507687       12.1501261309
Ge            5.6001009876       -0.0208876919       13.6813591506
Ge            2.1392288717        0.7244145894       14.5235738918
Ge            2.8714366219        2.9333924310       13.6735642111
Ge            3.8705888323        4.6572309262       15.3718236181
Ge            4.9630459201        3.5524909220        5.3995795795
Ge            7.1818156097        4.2875684589        6.2518459116
Ge            8.9046852723       -0.3880192065        4.5537278293
Ge            9.9083027860        1.3288323966        6.2498470061
Ge            5.7333325969        0.0572140286        7.7692506638
Ge            7.1262205928        1.3951989325        9.3097588731
Ge            8.4716604482        2.7902982212        7.7739167607
Ge            9.9107483977        4.2894047544        9.1637868256
Ge           -0.0212784306        2.8696042220       10.6058055924
Ge            7.0472942836        4.2086745303       12.1530921100
Ge            8.5415542796       -0.0238879703       10.7605515506
Ge            9.9869105707        1.4746331806       12.1446708759
Ge           -0.0711151951       -0.0203529746       13.6669114882
Ge            7.8160304533        0.7197877326       14.5226925485
Ge            8.5507528311        2.9304011358       13.6745454622
Ge            9.5532467605        4.6586342905       15.3653116372

     Writing output data file ./out/ge.save/
     NEW-OLD atomic charge density approx. for the potential

[...]

     Total force =     0.004895     Total SCF correction =     0.003755
     SCF correction compared to forces is large: reduce conv_thr to get better values
     Energy error            =      3.2E-05 Ry
     Gradient error          =      1.4E-03 Ry/Bohr

[...]

     energy             old  =   -5714.8679635635 Ry
     energy             new  =   -5714.8679957634 Ry

     CASE: energy            _new < energy            _old

[...]

     number of scf cycles    =   3
     number of bfgs steps    =   2

     energy             old  =   -5714.8679957634 Ry
     energy             new  =   -5714.8680262305 Ry

     CASE: energy            _new < energy            _old

     new trust radius        =       0.0031709139 bohr
     new conv_thr            =       0.0000000100 Ry

ATOMIC_POSITIONS (angstrom)
Ge           -0.7076424071        3.5433770391        5.3978002172
Ge            1.5059988643        4.2874720459        6.2456490040
Ge            3.2242097819       -0.3867706279        4.5456031414
Ge            4.2316422808        1.3341964824        6.2389374259
Ge            0.0612231805        0.0533966708        7.7731064535
Ge            1.4573859540        1.3980757698        9.3054786199
Ge            2.7989682071        2.7939300121        7.7658961403
Ge            4.2386570645        4.2893815784        9.1603961882
Ge            5.6523185759        2.8702575918       10.6118589727
Ge            1.3726477781        4.2088937002       12.1443942018
Ge            2.8699372181       -0.0227292145       10.7562145136
Ge            4.3124325481        1.4707496167       12.1512650959
Ge            5.6008161362       -0.0214558342       13.6802401310
Ge            2.1387835278        0.7224260425       14.5231321132
Ge            2.8741544958        2.9336194166       13.6737281710
Ge            3.8719584683        4.6557397400       15.3725324952
Ge            4.9645312702        3.5522514607        5.3989856699
Ge            7.1806678072        4.2874455663        6.2499020568
Ge            8.9034782041       -0.3880439530        4.5532216583
Ge            9.9073760402        1.3307735128        6.2491101461
Ge            5.7328358682        0.0581200853        7.7693730186
Ge            7.1269308687        1.3953640810        9.3101634740
Ge            8.4707619983        2.7908813994        7.7726488231
Ge            9.9107524112        4.2895998399        9.1630194292
Ge           -0.0207837386        2.8688239506       10.6063365691
Ge            7.0463766678        4.2083540875       12.1528733150
Ge            8.5418304123       -0.0236965890       10.7603900380
Ge            9.9876342942        1.4741171288       12.1458522768
Ge           -0.0711450198       -0.0205245413       13.6679291019
Ge            7.8161907159        0.7185580803       14.5225757943
Ge            8.5526502824        2.9306056600       13.6748667161
Ge            9.5550839662        4.6568241458       15.3662183176

     Writing output data file ./out/ge.save/
     NEW-OLD atomic charge density approx. for the potential

     Self-consistent Calculation

[...]

     Threshold (ethr) on eigenvalues was too large:
     Diagonalizing with lowered threshold

     Davidson diagonalization with overlap
     ethr =  1.02E-09,  avg # of iterations =  4.0

[...]

     total energy              =   -5714.86805853 Ry
     estimated scf accuracy    <       0.00000002 Ry

     iteration #  8     ecut=    60.00 Ry     beta= 0.40
     Davidson diagonalization with overlap
     ethr =  4.80E-12,  avg # of iterations =  2.0

     End of self-consistent calculation

[...]

          k = 0.0000-1.0000 0.0000 ( 67998 PWs)   bands (ev):

   -21.5301 -21.5255 -21.5247 -21.5237 -21.4931 -21.4889 -21.4878 -21.4866
   -21.4545 -21.4497 -21.4490 -21.4477 -21.4201 -21.4165 -21.4152 -21.4150
   -21.3909 -21.3875 -21.3857 -21.3854 -21.3169 -21.3148 -21.3140 -21.3127
   -21.3112 -21.3089 -21.3061 -21.3038 -21.3033 -21.3023 -21.3019 -21.2967
   -21.2950 -21.2928 -21.2875 -21.2834 -21.2819 -21.2805 -21.2797 -21.2743
   -21.2735 -21.2692 -21.2665 -21.2631 -21.2545 -21.2367 -21.2364 -21.2340
   -21.2324 -21.2284 -21.2277 -21.2235 -21.2205 -21.2199 -21.2190 -21.2183
   -21.2175 -21.2136 -21.2112 -21.2087 -21.2084 -21.2058 -21.2053 -21.2034
   -21.1998 -21.1859 -21.1839 -21.1833 -21.1823 -21.1803 -21.1785 -21.1762
   -21.1750 -21.1731 -21.1695 -21.1691 -21.1689 -21.1684 -21.1646 -21.1628
   -21.1621 -21.1610 -21.1601 -21.1526 -21.1516 -21.1485 -21.1421 -21.1381
   -21.1353 -21.1332 -21.1316 -21.1314 -21.1307 -21.1273 -21.1237 -21.1230
   -21.1181 -21.1175 -21.1159 -21.1147 -21.1124 -21.1088 -21.1080 -21.1077
   -21.1029 -21.1006 -21.0984 -21.0968 -21.0937 -21.0908 -21.0895 -21.0847
   -21.0756 -21.0736 -21.0730 -21.0709 -21.0679 -21.0635 -21.0583 -21.0579
   -21.0510 -21.0462 -21.0438 -21.0425 -21.0386 -21.0278 -21.0232 -21.0210
   -21.0112 -21.0068 -20.9967 -20.9883 -20.9862 -20.9834 -20.9813 -20.9801
   -20.9784 -20.9776 -20.9746 -20.9740 -20.9733 -20.9728 -20.9719 -20.9709
   -20.9699 -20.9603 -20.9512 -20.9480 -20.9460 -20.9400 -20.9386 -20.9379
   -20.9371 -20.9357 -20.9330 -20.9320 -20.9303 -20.9294 -20.9284 -20.9272
    -7.7791  -7.7252  -7.3489  -7.1304  -7.0558  -7.0237  -6.9740  -6.9372
    -6.8516  -6.4666  -6.3673  -6.3114  -6.2209  -5.8397  -5.7725  -5.4516
    -5.1221  -4.5080  -4.0699  -3.6543  -3.5296  -3.4502  -3.3501  -3.2563
    -3.1214  -3.0225  -2.6308  -2.1005  -2.0695  -1.7259  -1.5228  -1.1863
    -0.3306  -0.2137  -0.1364  -0.0653   0.0113   0.2949   0.3846   0.5992
     0.7341   0.7387   0.7452   0.9456   1.0513   1.5380   1.6607   1.6724
     1.7230   1.7293   1.7759   1.9758   1.9927   2.0084   2.0507   2.3447
     2.3515   2.3574   2.3669   2.4526   2.7449   2.7551   3.2388   3.3183
     3.4206   4.0053   4.0130   4.1176   4.4915   4.5676   4.6265   4.7514
     4.8972   4.9062   5.0864   5.1525   5.4749   5.4948   5.7202   5.7907
     5.9137   6.0529   6.3506   6.3626   6.6691   6.6788   6.6912   6.9308
     7.0668   7.0768   7.1144   7.1270   7.2590   7.3079   7.3139   7.3968
     7.6051   7.6357   7.6900   7.8209   7.8366   7.8675   7.9110   8.0596
     8.1535   8.2275   8.2703   8.3058   8.4349

     the Fermi energy is     3.2877 ev

!    total energy              =   -5714.86805853 Ry
     estimated scf accuracy    <          3.7E-09 Ry
     smearing contrib. (-TS)   =      -0.00822215 Ry
     internal energy E=F+TS    =   -5714.85983638 Ry

     The total energy is F=E-TS. E is the sum of the following terms:
     one-electron contribution =  -15230.35026776 Ry
     hartree contribution      =    7822.85745037 Ry
     xc contribution           =   -1394.58921716 Ry
     ewald contribution        =    3087.22219817 Ry

     convergence has been achieved in   8 iterations

     Forces acting on atoms (cartesian axes, Ry/au):

     atom    1 type  1   force =    -0.00047768    0.00059399    0.00009652
     atom    2 type  1   force =    -0.00055720    0.00013611   -0.00024565
     atom    3 type  1   force =    -0.00013493    0.00039871    0.00016798
     atom    4 type  1   force =    -0.00030562    0.00030658   -0.00004468
     atom    5 type  1   force =    -0.00029414    0.00056597   -0.00022203
     atom    6 type  1   force =    -0.00002324   -0.00010129    0.00019187
     atom    7 type  1   force =    -0.00059705    0.00002788    0.00008501
     atom    8 type  1   force =    -0.00013189    0.00005476    0.00003338
     atom    9 type  1   force =    -0.00010435   -0.00017696    0.00008698
     atom   10 type  1   force =     0.00026441   -0.00016112    0.00027018
     atom   11 type  1   force =     0.00017784    0.00000911    0.00022458
     atom   12 type  1   force =     0.00019726    0.00002647    0.00025243
     atom   13 type  1   force =     0.00019231   -0.00034770   -0.00030200
     atom   14 type  1   force =     0.00026543   -0.00052507   -0.00023934
     atom   15 type  1   force =     0.00065674   -0.00015620    0.00004902
     atom   16 type  1   force =     0.00068166   -0.00052306    0.00013727
     atom   17 type  1   force =     0.00007252   -0.00008033   -0.00041893
     atom   18 type  1   force =    -0.00031126    0.00012672   -0.00041584
     atom   19 type  1   force =    -0.00045489    0.00019823   -0.00024770
     atom   20 type  1   force =    -0.00046114    0.00055065   -0.00039561
     atom   21 type  1   force =    -0.00017115    0.00034338    0.00000083
     atom   22 type  1   force =     0.00005774    0.00034391    0.00018113
     atom   23 type  1   force =    -0.00052644    0.00037557   -0.00037048
     atom   24 type  1   force =    -0.00000162   -0.00011237   -0.00015255
     atom   25 type  1   force =    -0.00023104    0.00001318    0.00015467
     atom   26 type  1   force =     0.00022841   -0.00007013    0.00010057
     atom   27 type  1   force =     0.00016530   -0.00009283    0.00003925
     atom   28 type  1   force =     0.00024788   -0.00024312    0.00041654
     atom   29 type  1   force =     0.00001917   -0.00031624    0.00027963
     atom   30 type  1   force =     0.00037193   -0.00040299   -0.00006409
     atom   31 type  1   force =     0.00048530   -0.00005685    0.00001980
     atom   32 type  1   force =     0.00069973   -0.00070495    0.00033125

     Total force =     0.003029     Total SCF correction =     0.000361
     SCF correction compared to forces is large: reduce conv_thr to get better values
     Energy error            =      3.2E-05 Ry
     Gradient error          =      7.0E-04 Ry/Bohr

     bfgs converged in   4 scf cycles and   3 bfgs steps
     (criteria: energy <  1.0E-04 Ry, force <  1.0E-03 Ry/Bohr)

     End of BFGS Geometry Optimization

     Final energy             =   -5714.8680585308 Ry

     File ./out/ge.bfgs deleted, as requested
Begin final coordinates

ATOMIC_POSITIONS (angstrom)
Ge           -0.7076424071        3.5433770391        5.3978002172
Ge            1.5059988643        4.2874720459        6.2456490040
Ge            3.2242097819       -0.3867706279        4.5456031414
Ge            4.2316422808        1.3341964824        6.2389374259
Ge            0.0612231805        0.0533966708        7.7731064535
Ge            1.4573859540        1.3980757698        9.3054786199
Ge            2.7989682071        2.7939300121        7.7658961403
Ge            4.2386570645        4.2893815784        9.1603961882
Ge            5.6523185759        2.8702575918       10.6118589727
Ge            1.3726477781        4.2088937002       12.1443942018
Ge            2.8699372181       -0.0227292145       10.7562145136
Ge            4.3124325481        1.4707496167       12.1512650959
Ge            5.6008161362       -0.0214558342       13.6802401310
Ge            2.1387835278        0.7224260425       14.5231321132
Ge            2.8741544958        2.9336194166       13.6737281710
Ge            3.8719584683        4.6557397400       15.3725324952
Ge            4.9645312702        3.5522514607        5.3989856699
Ge            7.1806678072        4.2874455663        6.2499020568
Ge            8.9034782041       -0.3880439530        4.5532216583
Ge            9.9073760402        1.3307735128        6.2491101461
Ge            5.7328358682        0.0581200853        7.7693730186
Ge            7.1269308687        1.3953640810        9.3101634740
Ge            8.4707619983        2.7908813994        7.7726488231
Ge            9.9107524112        4.2895998399        9.1630194292
Ge           -0.0207837386        2.8688239506       10.6063365691
Ge            7.0463766678        4.2083540875       12.1528733150
Ge            8.5418304123       -0.0236965890       10.7603900380
Ge            9.9876342942        1.4741171288       12.1458522768
Ge           -0.0711450198       -0.0205245413       13.6679291019
Ge            7.8161907159        0.7185580803       14.5225757943
Ge            8.5526502824        2.9306056600       13.6748667161
Ge            9.5550839662        4.6568241458       15.3662183176
End final coordinates

     Writing output data file ./out/ge.save/

     General routines

     Parallel routines

   This run was terminated on:  15:11:10  28Apr2025

   JOB DONE.