     Program PWSCF v.6.8 starts on 15May2025 at  0:13:48

     R & G space division:  proc/nbgrp/npool/nimage =      56

     Reading input from supercell.in
Warning: card &CELL ignored
Warning: card / ignored

     Current dimensions of program PWSCF are:
     Max number of different atomic species (ntypx) = 10
     Max number of k-points (npk) =  40000
     Max angular momentum in pseudopotentials (lmaxx) =  4
     Found symmetry operation: I + ( -0.5000  0.0000  0.0000)
     This is a supercell, fractional translations are disabled
     Message from routine setup:
     using ibrav=0 with symmetry is DISCOURAGED, use correct ibrav instead

     Using Slab Decomposition

     bravais-lattice index     =            0
     lattice parameter (alat)  =      21.7696  a.u.
     unit-cell volume          =   10317.0146 (a.u.)^3
     number of atoms/cell      =           64
     number of atomic types    =            1
     number of electrons       =       896.00
     number of Kohn-Sham states=          538
     kinetic-energy cutoff     =      60.0000  Ry
     charge density cutoff     =     240.0000  Ry
     scf convergence threshold =      1.0E-08
     mixing beta               =       0.5000
     number of iterations used =            8  plain     mixing
     Exchange-correlation= PBE
                           (   1   4   3   4   0   0   0)

     celldm(1)=  21.769645  celldm(2)=   0.000000  celldm(3)=   0.000000
     celldm(4)=   0.000000  celldm(5)=   0.000000  celldm(6)=   0.000000

     crystal axes: (cart. coord. in units of alat)
               a(1) = (   1.000000   0.000000   0.000000 )
               a(2) = (   0.000000   1.000000   0.000000 )
               a(3) = (   0.000000   0.000000   1.000000 )

     reciprocal axes: (cart. coord. in units 2 pi/alat)
               b(1) = (  1.000000  0.000000  0.000000 )
               b(2) = (  0.000000  1.000000  0.000000 )
               b(3) = (  0.000000  0.000000  1.000000 )

     PseudoPot. # 1 for Ge read from file:
     ./Ge.upf
     MD5 check sum: 087fa14d6c89b52166990835c3b338da
     Pseudo is Norm-conserving + core correction, Zval = 14.0
     Generated using ONCVPSP code by D. R. Hamann
     Using radial grid of 1560 points,  6 beta functions with:
                l(1) =   0
                l(2) =   0
                l(3) =   1
                l(4) =   1
                l(5) =   2
                l(6) =   2

     atomic species   valence    mass     pseudopotential
        Ge            14.00    72.64000     Ge( 1.00)

     24 Sym. Ops. (no inversion) found

   Cartesian axes

     site n.     atom                  positions (alat units)
         1           Ge  tau(   1) = (   0.0000000   0.0000000   0.0000000  )
         2           Ge  tau(   2) = (   0.5000000   0.0000000   0.0000000  )
         3           Ge  tau(   3) = (   0.0000000   0.5000000   0.0000000  )
         4           Ge  tau(   4) = (   0.5000000   0.5000000   0.0000000  )
         5           Ge  tau(   5) = (   0.0000000   0.0000000   0.5000000  )
         6           Ge  tau(   6) = (   0.5000000   0.0000000   0.5000000  )
         7           Ge  tau(   7) = (   0.0000000   0.5000000   0.5000000  )
         8           Ge  tau(   8) = (   0.5000000   0.5000000   0.5000000  )
         9           Ge  tau(   9) = (   0.1250000   0.1250000   0.1250000  )
        10           Ge  tau(  10) = (   0.6250000   0.1250000   0.1250000  )
        11           Ge  tau(  11) = (   0.1250000   0.6250000   0.1250000  )
        12           Ge  tau(  12) = (   0.6250000   0.6250000   0.1250000  )
        13           Ge  tau(  13) = (   0.1250000   0.1250000   0.6250000  )
        14           Ge  tau(  14) = (   0.6250000   0.1250000   0.6250000  )
        15           Ge  tau(  15) = (   0.1250000   0.6250000   0.6250000  )
        16           Ge  tau(  16) = (   0.6250000   0.6250000   0.6250000  )
        17           Ge  tau(  17) = (   0.2500000   0.2500000   0.0000000  )
        18           Ge  tau(  18) = (   0.7500000   0.2500000   0.0000000  )
        19           Ge  tau(  19) = (   0.2500000   0.7500000   0.0000000  )
        20           Ge  tau(  20) = (   0.7500000   0.7500000   0.0000000  )
        21           Ge  tau(  21) = (   0.2500000   0.2500000   0.5000000  )
        22           Ge  tau(  22) = (   0.7500000   0.2500000   0.5000000  )
        23           Ge  tau(  23) = (   0.2500000   0.7500000   0.5000000  )
        24           Ge  tau(  24) = (   0.7500000   0.7500000   0.5000000  )
        25           Ge  tau(  25) = (   0.3750000   0.3750000   0.1250000  )
        26           Ge  tau(  26) = (   0.8750000   0.3750000   0.1250000  )
        27           Ge  tau(  27) = (   0.3750000   0.8750000   0.1250000  )
        28           Ge  tau(  28) = (   0.8750000   0.8750000   0.1250000  )
        29           Ge  tau(  29) = (   0.3750000   0.3750000   0.6250000  )
        30           Ge  tau(  30) = (   0.8750000   0.3750000   0.6250000  )
        31           Ge  tau(  31) = (   0.3750000   0.8750000   0.6250000  )
        32           Ge  tau(  32) = (   0.8750000   0.8750000   0.6250000  )
        33           Ge  tau(  33) = (   0.2500000   0.0000000   0.2500000  )
        34           Ge  tau(  34) = (   0.7500000   0.0000000   0.2500000  )
        35           Ge  tau(  35) = (   0.2500000   0.5000000   0.2500000  )
        36           Ge  tau(  36) = (   0.7500000   0.5000000   0.2500000  )
        37           Ge  tau(  37) = (   0.2500000   0.0000000   0.7500000  )
        38           Ge  tau(  38) = (   0.7500000   0.0000000   0.7500000  )
        39           Ge  tau(  39) = (   0.2500000   0.5000000   0.7500000  )
        40           Ge  tau(  40) = (   0.7500000   0.5000000   0.7500000  )
        41           Ge  tau(  41) = (   0.3750000   0.1250000   0.3750000  )
        42           Ge  tau(  42) = (   0.8750000   0.1250000   0.3750000  )
        43           Ge  tau(  43) = (   0.3750000   0.6250000   0.3750000  )
        44           Ge  tau(  44) = (   0.8750000   0.6250000   0.3750000  )
        45           Ge  tau(  45) = (   0.3750000   0.1250000   0.8750000  )
        46           Ge  tau(  46) = (   0.8750000   0.1250000   0.8750000  )
        47           Ge  tau(  47) = (   0.3750000   0.6250000   0.8750000  )
        48           Ge  tau(  48) = (   0.8750000   0.6250000   0.8750000  )
        49           Ge  tau(  49) = (   0.0000000   0.2500000   0.2500000  )
        50           Ge  tau(  50) = (   0.5000000   0.2500000   0.2500000  )
        51           Ge  tau(  51) = (   0.0000000   0.7500000   0.2500000  )
        52           Ge  tau(  52) = (   0.5000000   0.7500000   0.2500000  )
        53           Ge  tau(  53) = (   0.0000000   0.2500000   0.7500000  )
        54           Ge  tau(  54) = (   0.5000000   0.2500000   0.7500000  )
        55           Ge  tau(  55) = (   0.0000000   0.7500000   0.7500000  )
        56           Ge  tau(  56) = (   0.5000000   0.7500000   0.7500000  )
        57           Ge  tau(  57) = (   0.1250000   0.3750000   0.3750000  )
        58           Ge  tau(  58) = (   0.6250000   0.3750000   0.3750000  )
        59           Ge  tau(  59) = (   0.1250000   0.8750000   0.3750000  )
        60           Ge  tau(  60) = (   0.6250000   0.8750000   0.3750000  )
        61           Ge  tau(  61) = (   0.1250000   0.3750000   0.8750000  )
        62           Ge  tau(  62) = (   0.6250000   0.3750000   0.8750000  )
        63           Ge  tau(  63) = (   0.1250000   0.8750000   0.8750000  )
        64           Ge  tau(  64) = (   0.6250000   0.8750000   0.8750000  )

     number of k points=     1  Gaussian smearing, width (Ry)=  0.0100
                       cart. coord. in units 2pi/alat
        k(    1) = (   0.2500000   0.2500000   0.2500000), wk =   2.0000000

     Initial potential from superposition of free atoms

     starting charge  895.94733, renormalised to  896.00000
     Starting wfcs are  576 randomized atomic wfcs

     Self-consistent Calculation

     iteration #  1     ecut=    60.00 Ry     beta= 0.50
     Davidson diagonalization with overlap
     ethr =  1.00E-02,  avg # of iterations =  3.0

     Threshold (ethr) on eigenvalues was too large:
     Diagonalizing with lowered threshold

     Davidson diagonalization with overlap
     ethr =  1.11E-04,  avg # of iterations =  9.0

     total energy              =  -11430.97244430 Ry
     estimated scf accuracy    <       1.09858185 Ry

[...]

     total energy              =  -11430.98334339 Ry
     estimated scf accuracy    <       0.00000002 Ry

     iteration # 11     ecut=    60.00 Ry     beta= 0.50
     Davidson diagonalization with overlap
     ethr =  2.11E-12,  avg # of iterations =  4.0

     End of self-consistent calculation

          k = 0.2500 0.2500 0.2500 ( 80989 PWs)   bands (ev):

   -16.0993 -16.0993 -16.0993 -16.0980 -16.0980 -16.0980 -16.0980 -16.0980
   -16.0980 -16.0923 -16.0923 -16.0923 -16.0923 -16.0923 -16.0923 -16.0880
   -16.0880 -16.0880 -16.0870 -16.0870 -16.0870 -16.0867 -16.0867 -16.0867
   -16.0857 -16.0857 -16.0857 -16.0857 -16.0857 -16.0857 -16.0852 -16.0852
   -16.0852 -16.0838 -16.0838 -16.0838 -16.0836 -16.0836 -16.0836 -16.0836
   -16.0836 -16.0836 -16.0782 -16.0782 -16.0782 -16.0781 -16.0781 -16.0781
   -16.0773 -16.0773 -16.0773 -16.0769 -16.0769 -16.0769 -16.0761 -16.0761
   -16.0761 -16.0749 -16.0749 -16.0732 -16.0732 -16.0732 -16.0683 -16.0683
   -16.0594 -16.0551 -16.0551 -16.0551 -16.0439 -16.0439 -16.0439 -16.0436
   -16.0423 -16.0423 -16.0423 -16.0264 -16.0264 -16.0264 -16.0210 -16.0210
   -16.0210 -16.0210 -16.0210 -16.0210 -16.0200 -16.0200 -16.0200 -16.0180
   -16.0180 -16.0141 -16.0141 -16.0141 -16.0089 -16.0089 -16.0089 -16.0029
   -16.0029 -16.0029 -16.0029 -16.0029 -16.0029 -16.0023 -16.0023 -16.0023
   -15.9932 -15.9932 -15.9896 -15.9896 -15.9896 -15.9837 -15.9837 -15.9837
   -15.9823 -15.9823 -15.9823 -15.9819 -15.9819 -15.9819 -15.9819 -15.9819
   -15.9819 -15.9804 -15.9804 -15.9804 -15.9796 -15.9796 -15.9796 -15.9764
   -15.9764 -15.9764 -15.9610 -15.9610 -15.9610 -15.9585 -15.9585 -15.9585
   -15.9585 -15.9585 -15.9585 -15.9557 -15.9557 -15.9557 -15.9557 -15.9557
   -15.9557 -15.9546 -15.9546 -15.9546 -15.9492 -15.9492 -15.9492 -15.9472
   -15.9472 -15.9472 -15.9472 -15.9472 -15.9472 -15.9451 -15.9451 -15.9451
   -15.9338 -15.9338 -15.9338 -15.9238 -15.9238 -15.9238 -15.9238 -15.9238
   -15.9238 -15.9166 -15.9166 -15.9166 -15.9163 -15.9163 -15.9163 -15.9163
   -15.9163 -15.9163 -15.9123 -15.9123 -15.9123 -15.9123 -15.9123 -15.9123
   -15.9098 -15.9098 -15.9098 -15.9073 -15.9073 -15.9073 -15.9048 -15.9048
   -15.9048 -15.8923 -15.8923 -15.8923 -15.8899 -15.8899 -15.8899 -15.8845
   -15.8845 -15.8845 -15.8828 -15.8828 -15.8828 -15.8828 -15.8828 -15.8828
   -15.8812 -15.8812 -15.8812 -15.8812 -15.8812 -15.8812 -15.8806 -15.8806
   -15.8806 -15.8781 -15.8781 -15.8781 -15.8756 -15.8756 -15.8756 -15.8723
   -15.8723 -15.8723 -15.8714 -15.8714 -15.8704 -15.8704 -15.8704 -15.8703
   -15.8703 -15.8703 -15.8675 -15.8675 -15.8675 -15.8675 -15.8675 -15.8675
   -15.8546 -15.8546 -15.8546 -15.8543 -15.8543 -15.8543 -15.8504 -15.8504
   -15.8504 -15.8452 -15.8432 -15.8432 -15.8432 -15.8351 -15.8351 -15.8351
   -15.8246 -15.8246 -15.8245 -15.8245 -15.8245 -15.8123 -15.8123 -15.8123
   -15.8078 -15.8078 -15.8065 -15.8065 -15.8065 -15.8056 -15.8056 -15.8056
   -15.7995 -15.7995 -15.7995 -15.7991 -15.7991 -15.7991 -15.7977 -15.7977
   -15.7977 -15.7977 -15.7977 -15.7977 -15.7947 -15.7947 -15.7947 -15.7917
   -15.7917 -15.7917 -15.7907 -15.7907 -15.7907 -15.7905 -15.7905 -15.7905
   -15.7905 -15.7905 -15.7905 -15.7894 -15.7894 -15.7894 -15.7885 -15.7885
   -15.7885 -15.7877 -15.7877 -15.7877 -15.7877 -15.7877 -15.7877 -15.7847
   -15.7847 -15.7847 -15.7812 -15.7812 -15.7812 -15.7812 -15.7812 -15.7812
    -3.3854  -2.9109  -2.9109  -2.9109  -2.4698  -2.4698  -2.4698  -2.1035
    -1.9841  -1.9841  -1.9841  -1.6352  -1.6352  -1.6352  -1.6352  -1.6352
    -1.6352  -1.5115  -1.5115  -1.5115  -1.0584  -1.0584  -1.0584  -0.6601
    -0.6601  -0.6601  -0.5583  -0.5583  -0.5583  -0.5583  -0.5583  -0.5583
     0.9312   0.9312   0.9312   0.9312   0.9312   0.9312   0.9943   0.9943
     0.9943   1.3725   1.3725   1.3725   1.5473   1.5473   1.5473   2.1067
     2.1067   2.1067   2.1067   2.1067   2.1067   2.3109   2.7893   2.7893
     2.7893   3.3740   3.3740   3.3740   4.6178   4.6178   4.6178   4.9102
     4.9102   4.9102   4.9327   4.9327   4.9327   4.9327   4.9327   4.9327
     5.4717   5.4717   5.4717   5.4731   5.4731   5.4731   5.4731   5.4731
     5.4731   5.9233   5.9233   5.9233   5.9233   5.9233   5.9233   6.0896
     6.0896   6.0896   6.1305   6.1305   6.1305   6.2794   6.2794   6.2794
     6.3632   6.4031   6.4031   6.4031   6.5718   6.5718   6.5718   6.8462
     6.8462   6.8462   6.8462   6.8462   6.8462   6.8566   6.8566   6.8566
     7.1617   7.1617   7.1617   7.3726   7.3726   7.3726   7.4696   7.4696
     7.4696   7.6169   7.6169   7.9390   7.9390   7.9390   8.5010   8.5010
     8.9590   9.6146   9.7675   9.7675   9.7675  10.0658  10.0658  10.0658
    10.1142  10.1142  10.1142  10.2623  10.2623  10.2623  10.3954  10.3954
    10.3954  10.6315  10.6315  10.6315  10.7619  10.7619  10.7619  11.0714
    11.0714  11.0714  11.0714  11.0714  11.0714  11.1201  11.1201  11.1201
    11.1201  11.1201  11.1201  11.2693  11.2693  11.2693  11.4239  11.4239
    11.4239  11.7651  11.7651  12.1450  12.1654  12.1654  12.1654  12.1654
    12.1654  12.1654  12.3258  12.3258  12.3258  12.5198  12.5198  12.5198
    12.5507  12.5507  12.6946  12.6946  12.6946  12.8861  12.8861  12.8861
    12.8861  12.8861  12.8861  13.2167  13.2167  13.2167  13.2567  13.2567
    13.2567  13.5461  13.5461  13.5461  13.6395  13.6395  13.6395  13.6395
    13.6395  13.6395  13.6469  13.6469  13.6469  13.8113  13.8113  13.8113
    13.8113  13.8113

     the Fermi energy is     8.7423 ev

!    total energy              =  -11430.98334340 Ry
     estimated scf accuracy    <          5.6E-10 Ry
     smearing contrib. (-TS)   =      -0.00093153 Ry
     internal energy E=F+TS    =  -11430.98241187 Ry

     The total energy is F=E-TS. E is the sum of the following terms:
     one-electron contribution =   -6038.64010847 Ry
     hartree contribution      =    3606.48358713 Ry
     xc contribution           =   -2790.91626601 Ry
     ewald contribution        =   -6207.90962453 Ry

     convergence has been achieved in  11 iterations

     Forces acting on atoms (cartesian axes, Ry/au):

     atom    1 type  1   force =     0.00000000    0.00000000    0.00000000
     atom    2 type  1   force =     0.00000000    0.00000000    0.00000000
     atom    3 type  1   force =     0.00000000    0.00000000    0.00000000
     atom    4 type  1   force =     0.00000000    0.00000000    0.00000000
     atom    5 type  1   force =     0.00000000    0.00000000    0.00000000
     atom    6 type  1   force =     0.00000000    0.00000000    0.00000000
     atom    7 type  1   force =     0.00000000    0.00000000    0.00000000
     atom    8 type  1   force =     0.00000000    0.00000000    0.00000000
     atom    9 type  1   force =     0.00000152    0.00000152    0.00000152
     atom   10 type  1   force =     0.00000342   -0.00000001   -0.00000001
     atom   11 type  1   force =    -0.00000001    0.00000342   -0.00000001
     atom   12 type  1   force =     0.00000158    0.00000158   -0.00000264
     atom   13 type  1   force =    -0.00000001   -0.00000001    0.00000342
     atom   14 type  1   force =     0.00000158   -0.00000264    0.00000158
     atom   15 type  1   force =    -0.00000264    0.00000158    0.00000158
     atom   16 type  1   force =     0.00000088    0.00000088    0.00000088
     atom   17 type  1   force =    -0.00000110   -0.00000110   -0.00000069
     atom   18 type  1   force =     0.00000110   -0.00000110    0.00000069
     atom   19 type  1   force =    -0.00000110    0.00000110    0.00000069
     atom   20 type  1   force =     0.00000110    0.00000110   -0.00000069
     atom   21 type  1   force =    -0.00000202   -0.00000202    0.00000034
     atom   22 type  1   force =     0.00000202   -0.00000202   -0.00000034
     atom   23 type  1   force =    -0.00000202    0.00000202   -0.00000034
     atom   24 type  1   force =     0.00000202    0.00000202    0.00000034
     atom   25 type  1   force =    -0.00000158   -0.00000158   -0.00000264
     atom   26 type  1   force =     0.00000001   -0.00000342   -0.00000001
     atom   27 type  1   force =    -0.00000342    0.00000001   -0.00000001
     atom   28 type  1   force =    -0.00000152   -0.00000152    0.00000152
     atom   29 type  1   force =    -0.00000088   -0.00000088    0.00000088
     atom   30 type  1   force =     0.00000264   -0.00000158    0.00000158
     atom   31 type  1   force =    -0.00000158    0.00000264    0.00000158
     atom   32 type  1   force =     0.00000001    0.00000001    0.00000342
     atom   33 type  1   force =    -0.00000110   -0.00000069   -0.00000110
     atom   34 type  1   force =     0.00000110    0.00000069   -0.00000110
     atom   35 type  1   force =    -0.00000202    0.00000034   -0.00000202
     atom   36 type  1   force =     0.00000202   -0.00000034   -0.00000202
     atom   37 type  1   force =    -0.00000110    0.00000069    0.00000110
     atom   38 type  1   force =     0.00000110   -0.00000069    0.00000110
     atom   39 type  1   force =    -0.00000202   -0.00000034    0.00000202
     atom   40 type  1   force =     0.00000202    0.00000034    0.00000202
     atom   41 type  1   force =    -0.00000158   -0.00000264   -0.00000158
     atom   42 type  1   force =     0.00000001   -0.00000001   -0.00000342
     atom   43 type  1   force =    -0.00000088    0.00000088   -0.00000088
     atom   44 type  1   force =     0.00000264    0.00000158   -0.00000158
     atom   45 type  1   force =    -0.00000342   -0.00000001    0.00000001
     atom   46 type  1   force =    -0.00000152    0.00000152   -0.00000152
     atom   47 type  1   force =    -0.00000158    0.00000158    0.00000264
     atom   48 type  1   force =     0.00000001    0.00000342    0.00000001
     atom   49 type  1   force =    -0.00000069   -0.00000110   -0.00000110
     atom   50 type  1   force =     0.00000034   -0.00000202   -0.00000202
     atom   51 type  1   force =     0.00000069    0.00000110   -0.00000110
     atom   52 type  1   force =    -0.00000034    0.00000202   -0.00000202
     atom   53 type  1   force =     0.00000069   -0.00000110    0.00000110
     atom   54 type  1   force =    -0.00000034   -0.00000202    0.00000202
     atom   55 type  1   force =    -0.00000069    0.00000110    0.00000110
     atom   56 type  1   force =     0.00000034    0.00000202    0.00000202
     atom   57 type  1   force =    -0.00000264   -0.00000158   -0.00000158
     atom   58 type  1   force =     0.00000088   -0.00000088   -0.00000088
     atom   59 type  1   force =    -0.00000001    0.00000001   -0.00000342
     atom   60 type  1   force =     0.00000158    0.00000264   -0.00000158
     atom   61 type  1   force =    -0.00000001   -0.00000342    0.00000001
     atom   62 type  1   force =     0.00000158   -0.00000158    0.00000264
     atom   63 type  1   force =     0.00000152   -0.00000152   -0.00000152
     atom   64 type  1   force =     0.00000342    0.00000001    0.00000001

     Total force =     0.000021     Total SCF correction =     0.000031
     SCF correction compared to forces is large: reduce conv_thr to get better values

     Computing stress (Cartesian axis) and pressure

          total   stress  (Ry/bohr**3)                   (kbar)     P=     -351.62
  -0.00239025   0.00000000   0.00000000         -351.62        0.00        0.00
   0.00000000  -0.00239025   0.00000000            0.00     -351.62        0.00
   0.00000000   0.00000000  -0.00239025            0.00        0.00     -351.62

     Writing output data file ./Ge_out/Ge_scf.save/

     General routines

     Parallel routines

   This run was terminated on:   0:15:17  15May2025

   JOB DONE.