     Program PWSCF v.6.8 starts on 15May2025 at  0:10:19

     R & G space division:  proc/nbgrp/npool/nimage =      56

     Reading input from supercell-001.in
Warning: card &CELL ignored
Warning: card / ignored

     Current dimensions of program PWSCF are:
     Max number of different atomic species (ntypx) = 10
     Max number of k-points (npk) =  40000
     Max angular momentum in pseudopotentials (lmaxx) =  4

     gamma-point specific algorithms are used
     Message from routine setup:
     using ibrav=0 with symmetry is DISCOURAGED, use correct ibrav instead

     Using Slab Decomposition

     bravais-lattice index     =            0
     lattice parameter (alat)  =      21.7696  a.u.
     unit-cell volume          =   10317.0146 (a.u.)^3
     number of atoms/cell      =           64
     number of atomic types    =            1
     number of electrons       =       896.00
     number of Kohn-Sham states=          538
     kinetic-energy cutoff     =      60.0000  Ry
     charge density cutoff     =     240.0000  Ry
     scf convergence threshold =      1.0E-08
     mixing beta               =       0.5000
     number of iterations used =            8  plain     mixing
     Exchange-correlation= PBE
                           (   1   4   3   4   0   0   0)

     celldm(1)=  21.769645  celldm(2)=   0.000000  celldm(3)=   0.000000
     celldm(4)=   0.000000  celldm(5)=   0.000000  celldm(6)=   0.000000

     crystal axes: (cart. coord. in units of alat)
               a(1) = (   1.000000   0.000000   0.000000 )
               a(2) = (   0.000000   1.000000   0.000000 )
               a(3) = (   0.000000   0.000000   1.000000 )

     reciprocal axes: (cart. coord. in units 2 pi/alat)
               b(1) = (  1.000000  0.000000  0.000000 )
               b(2) = (  0.000000  1.000000  0.000000 )
               b(3) = (  0.000000  0.000000  1.000000 )

     PseudoPot. # 1 for Ge read from file:
     ./Ge.upf
     MD5 check sum: 087fa14d6c89b52166990835c3b338da
     Pseudo is Norm-conserving + core correction, Zval = 14.0
     Generated using ONCVPSP code by D. R. Hamann
     Using radial grid of 1560 points,  6 beta functions with:
                l(1) =   0
                l(2) =   0
                l(3) =   1
                l(4) =   1
                l(5) =   2
                l(6) =   2

     atomic species   valence    mass     pseudopotential
        Ge            14.00    72.64000     Ge( 1.00)

      4 Sym. Ops. (no inversion) found

   Cartesian axes

     site n.     atom                  positions (alat units)
         1           Ge  tau(   1) = (   0.0009187   0.0000000   0.0000000  )
         2           Ge  tau(   2) = (   0.5000000   0.0000000   0.0000000  )
         3           Ge  tau(   3) = (   0.0000000   0.5000000   0.0000000  )
         4           Ge  tau(   4) = (   0.5000000   0.5000000   0.0000000  )
         5           Ge  tau(   5) = (   0.0000000   0.0000000   0.5000000  )
         6           Ge  tau(   6) = (   0.5000000   0.0000000   0.5000000  )
         7           Ge  tau(   7) = (   0.0000000   0.5000000   0.5000000  )
         8           Ge  tau(   8) = (   0.5000000   0.5000000   0.5000000  )
         9           Ge  tau(   9) = (   0.1250000   0.1250000   0.1250000  )
        10           Ge  tau(  10) = (   0.6250000   0.1250000   0.1250000  )
        11           Ge  tau(  11) = (   0.1250000   0.6250000   0.1250000  )
        12           Ge  tau(  12) = (   0.6250000   0.6250000   0.1250000  )
        13           Ge  tau(  13) = (   0.1250000   0.1250000   0.6250000  )
        14           Ge  tau(  14) = (   0.6250000   0.1250000   0.6250000  )
        15           Ge  tau(  15) = (   0.1250000   0.6250000   0.6250000  )
        16           Ge  tau(  16) = (   0.6250000   0.6250000   0.6250000  )
        17           Ge  tau(  17) = (   0.2500000   0.2500000   0.0000000  )
        18           Ge  tau(  18) = (   0.7500000   0.2500000   0.0000000  )
        19           Ge  tau(  19) = (   0.2500000   0.7500000   0.0000000  )
        20           Ge  tau(  20) = (   0.7500000   0.7500000   0.0000000  )
        21           Ge  tau(  21) = (   0.2500000   0.2500000   0.5000000  )
        22           Ge  tau(  22) = (   0.7500000   0.2500000   0.5000000  )
        23           Ge  tau(  23) = (   0.2500000   0.7500000   0.5000000  )
        24           Ge  tau(  24) = (   0.7500000   0.7500000   0.5000000  )
        25           Ge  tau(  25) = (   0.3750000   0.3750000   0.1250000  )
        26           Ge  tau(  26) = (   0.8750000   0.3750000   0.1250000  )
        27           Ge  tau(  27) = (   0.3750000   0.8750000   0.1250000  )
        28           Ge  tau(  28) = (   0.8750000   0.8750000   0.1250000  )
        29           Ge  tau(  29) = (   0.3750000   0.3750000   0.6250000  )
        30           Ge  tau(  30) = (   0.8750000   0.3750000   0.6250000  )
        31           Ge  tau(  31) = (   0.3750000   0.8750000   0.6250000  )
        32           Ge  tau(  32) = (   0.8750000   0.8750000   0.6250000  )
        33           Ge  tau(  33) = (   0.2500000   0.0000000   0.2500000  )
        34           Ge  tau(  34) = (   0.7500000   0.0000000   0.2500000  )
        35           Ge  tau(  35) = (   0.2500000   0.5000000   0.2500000  )
        36           Ge  tau(  36) = (   0.7500000   0.5000000   0.2500000  )
        37           Ge  tau(  37) = (   0.2500000   0.0000000   0.7500000  )
        38           Ge  tau(  38) = (   0.7500000   0.0000000   0.7500000  )
        39           Ge  tau(  39) = (   0.2500000   0.5000000   0.7500000  )
        40           Ge  tau(  40) = (   0.7500000   0.5000000   0.7500000  )
        41           Ge  tau(  41) = (   0.3750000   0.1250000   0.3750000  )
        42           Ge  tau(  42) = (   0.8750000   0.1250000   0.3750000  )
        43           Ge  tau(  43) = (   0.3750000   0.6250000   0.3750000  )
        44           Ge  tau(  44) = (   0.8750000   0.6250000   0.3750000  )
        45           Ge  tau(  45) = (   0.3750000   0.1250000   0.8750000  )
        46           Ge  tau(  46) = (   0.8750000   0.1250000   0.8750000  )
        47           Ge  tau(  47) = (   0.3750000   0.6250000   0.8750000  )
        48           Ge  tau(  48) = (   0.8750000   0.6250000   0.8750000  )
        49           Ge  tau(  49) = (   0.0000000   0.2500000   0.2500000  )
        50           Ge  tau(  50) = (   0.5000000   0.2500000   0.2500000  )
        51           Ge  tau(  51) = (   0.0000000   0.7500000   0.2500000  )
        52           Ge  tau(  52) = (   0.5000000   0.7500000   0.2500000  )
        53           Ge  tau(  53) = (   0.0000000   0.2500000   0.7500000  )
        54           Ge  tau(  54) = (   0.5000000   0.2500000   0.7500000  )
        55           Ge  tau(  55) = (   0.0000000   0.7500000   0.7500000  )
        56           Ge  tau(  56) = (   0.5000000   0.7500000   0.7500000  )
        57           Ge  tau(  57) = (   0.1250000   0.3750000   0.3750000  )
        58           Ge  tau(  58) = (   0.6250000   0.3750000   0.3750000  )
        59           Ge  tau(  59) = (   0.1250000   0.8750000   0.3750000  )
        60           Ge  tau(  60) = (   0.6250000   0.8750000   0.3750000  )
        61           Ge  tau(  61) = (   0.1250000   0.3750000   0.8750000  )
        62           Ge  tau(  62) = (   0.6250000   0.3750000   0.8750000  )
        63           Ge  tau(  63) = (   0.1250000   0.8750000   0.8750000  )
        64           Ge  tau(  64) = (   0.6250000   0.8750000   0.8750000  )

     number of k points=     1  Gaussian smearing, width (Ry)=  0.0100
                       cart. coord. in units 2pi/alat
        k(    1) = (   0.0000000   0.0000000   0.0000000), wk =   2.0000000

     Initial potential from superposition of free atoms

     starting charge  895.94733, renormalised to  896.00000
     Starting wfcs are  576 randomized atomic wfcs

     Self-consistent Calculation

     iteration #  1     ecut=    60.00 Ry     beta= 0.50
     Davidson diagonalization with overlap
     ethr =  1.00E-02,  avg # of iterations =  4.0

     Threshold (ethr) on eigenvalues was too large:
     Diagonalizing with lowered threshold

     Davidson diagonalization with overlap
     ethr =  1.20E-04,  avg # of iterations =  4.0

     total energy              =  -11430.34738087 Ry
     estimated scf accuracy    <       1.18306488 Ry

[...]

     total energy              =  -11430.35794814 Ry
     estimated scf accuracy    <       0.00000007 Ry

     iteration # 12     ecut=    60.00 Ry     beta= 0.50
     Davidson diagonalization with overlap
     ethr =  7.34E-12,  avg # of iterations =  2.0

     End of self-consistent calculation

          k = 0.0000 0.0000 0.0000 ( 40399 PWs)   bands (ev):

   -16.0216 -16.0210 -16.0210 -16.0209 -16.0208 -16.0207 -16.0207 -16.0207
   -16.0207 -16.0206 -16.0205 -16.0203 -16.0185 -16.0182 -16.0181 -16.0180
   -16.0180 -16.0179 -16.0179 -16.0179 -16.0179 -16.0178 -16.0176 -16.0174
   -16.0147 -16.0146 -16.0144 -16.0143 -16.0143 -16.0143 -16.0142 -16.0142
   -16.0142 -16.0141 -16.0140 -16.0137 -16.0039 -16.0033 -16.0033 -16.0033
   -16.0032 -16.0030 -16.0026 -16.0024 -16.0023 -16.0022 -16.0022 -16.0022
   -16.0022 -16.0021 -16.0021 -16.0020 -16.0019 -16.0018 -16.0018 -16.0017
   -16.0017 -16.0016 -16.0015 -16.0014 -16.0013 -16.0007 -15.9938 -15.9938
   -15.9937 -15.9809 -15.9808 -15.9807 -15.9807 -15.9807 -15.9806 -15.9750
   -15.9750 -15.9650 -15.9648 -15.9648 -15.9646 -15.9453 -15.9452 -15.9450
   -15.9450 -15.9450 -15.9450 -15.9448 -15.9448 -15.9448 -15.9448 -15.9446
   -15.9444 -15.9322 -15.9321 -15.9320 -15.9320 -15.9320 -15.9318 -15.9231
   -15.9229 -15.9228 -15.9228 -15.9227 -15.9225 -15.9147 -15.9147 -15.9147
   -15.9147 -15.9142 -15.9142 -15.9142 -15.9142 -15.9117 -15.9116 -15.9116
   -15.9116 -15.9114 -15.9114 -15.9113 -15.9112 -15.9111 -15.9111 -15.9110
   -15.9110 -15.8999 -15.8999 -15.8998 -15.8997 -15.8997 -15.8997 -15.8996
   -15.8996 -15.8996 -15.8995 -15.8994 -15.8993 -15.8917 -15.8916 -15.8916
   -15.8916 -15.8915 -15.8914 -15.8872 -15.8872 -15.8872 -15.8871 -15.8870
   -15.8869 -15.8868 -15.8868 -15.8867 -15.8866 -15.8866 -15.8865 -15.8614
   -15.8612 -15.8612 -15.8611 -15.8610 -15.8610 -15.8610 -15.8610 -15.8610
   -15.8609 -15.8609 -15.8607 -15.8452 -15.8451 -15.8450 -15.8450 -15.8449
   -15.8448 -15.8379 -15.8379 -15.8379 -15.8379 -15.8378 -15.8378 -15.8290
   -15.8289 -15.8288 -15.8288 -15.8287 -15.8286 -15.8286 -15.8286 -15.8285
   -15.8285 -15.8284 -15.8284 -15.8283 -15.8282 -15.8282 -15.8281 -15.8281
   -15.8281 -15.8281 -15.8281 -15.8281 -15.8280 -15.8280 -15.8277 -15.8110
   -15.8110 -15.8109 -15.8109 -15.8108 -15.8108 -15.8088 -15.8088 -15.8088
   -15.8087 -15.8087 -15.8087 -15.8085 -15.8085 -15.8085 -15.8084 -15.8084
   -15.8083 -15.8029 -15.8028 -15.8028 -15.8027 -15.8027 -15.8027 -15.8025
   -15.8025 -15.8024 -15.8024 -15.8023 -15.8023 -15.7998 -15.7998 -15.7998
   -15.7998 -15.7995 -15.7994 -15.7994 -15.7993 -15.7938 -15.7937 -15.7936
   -15.7903 -15.7902 -15.7900 -15.7899 -15.7844 -15.7843 -15.7842 -15.7842
   -15.7841 -15.7841 -15.7702 -15.7702 -15.7499 -15.7499 -15.7498 -15.7498
   -15.7497 -15.7497 -15.7392 -15.7392 -15.7390 -15.7390 -15.7389 -15.7389
   -15.7389 -15.7389 -15.7389 -15.7388 -15.7387 -15.7386 -15.7265 -15.7265
   -15.7264 -15.7264 -15.7264 -15.7263 -15.7263 -15.7263 -15.7263 -15.7262
   -15.7262 -15.7261 -15.7229 -15.7228 -15.7228 -15.7227 -15.7226 -15.7225
   -15.7225 -15.7224 -15.7168 -15.7167 -15.7166 -15.7166 -15.7166 -15.7165
   -15.7165 -15.7165 -15.7164 -15.7164 -15.7163 -15.7163 -15.7096 -15.7096
   -15.7096 -15.7095 -15.7095 -15.7094 -15.7094 -15.7094 -15.7094 -15.7093
   -15.7093 -15.7092 -15.7080 -15.7080 -15.7079 -15.7078 -15.7077 -15.7077
    -3.5332  -2.5759  -2.5743  -2.5740  -2.5740  -2.5736  -2.5721  -1.7547
    -1.7518  -1.7506  -1.7506  -1.7506  -1.7505  -1.7505  -1.7504  -1.7504
    -1.7504  -1.7493  -1.7464  -1.5731  -1.5725  -1.5714  -1.5707   0.1491
     0.1502   0.1513   0.1513   0.1523   0.1533   0.2300   0.2319   0.2338
     0.2338   0.2340   0.2340   0.2340   0.2340   0.2342   0.2342   0.2361
     0.2382   1.4770   1.4781   1.4786   1.4796   2.4087   2.4097   2.4119
     2.4120   2.4121   2.4122   2.4122   2.4123   2.4123   2.4124   2.4146
     2.4157   4.1037   4.1039   4.1052   4.1052   4.1065   4.1067   5.1823
     5.1836   5.1841   5.1841   5.1843   5.1845   5.1845   5.1846   5.1848
     5.1848   5.1852   5.1864   5.2115   5.2116   5.2119   5.2129   5.2130
     5.2130   5.2131   5.2131   5.2132   5.2143   5.2146   5.2149   5.9488
     5.9496   5.9496   5.9496   5.9497   5.9505   6.9306   6.9327   6.9336
     6.9337   6.9338   6.9338   6.9338   6.9338   6.9338   6.9339   6.9348
     6.9369   7.4253   7.4270   7.4281   7.4285   7.4286   7.4286   7.4287
     7.4287   7.4288   7.4292   7.4303   7.4319   7.5175   7.5191   7.5193
     7.5197   7.5198   7.5202   7.5205   7.5222   8.3947   8.8454   8.8467
     8.8479   8.8657   8.8661   8.8665   8.8670   9.6560   9.6567   9.6576
     9.6576   9.6586   9.6592   9.9012   9.9019   9.9029   9.9030   9.9040
     9.9047  10.6875  10.6884  10.6899  10.6901  10.6902  10.6903  10.6903
    10.6904  10.6906  10.6907  10.6922  10.6932  11.3618  11.3629  11.3641
    11.4435  11.4438  11.4444  11.4444  11.4451  11.4454  12.5505  12.5508
    12.5526  12.5528  12.5529  12.5530  12.5548  12.5551  12.9479  12.9483
    12.9499  12.9501  12.9504  12.9504  12.9505  12.9505  12.9507  12.9510
    12.9526  12.9530  13.5028  13.5047  13.5067  13.5068  13.5073  13.5073
    13.5073  13.5073  13.5078  13.5078  13.5093  13.5109  13.5262  13.5266
    13.5272  13.5279  13.5281  13.5282  13.5282  13.5285  13.5286  13.5298
    13.5298  13.5311  13.7764  13.7776  13.7780  13.7789  13.7790  13.7790
    13.7802  13.7803

     the Fermi energy is     8.8032 ev

!    total energy              =  -11430.35794815 Ry
     estimated scf accuracy    <          5.2E-09 Ry
     smearing contrib. (-TS)   =      -0.03347584 Ry
     internal energy E=F+TS    =  -11430.32447231 Ry

     The total energy is F=E-TS. E is the sum of the following terms:
     one-electron contribution =   -6041.85707439 Ry
     hartree contribution      =    3610.65539054 Ry
     xc contribution           =   -2791.21516924 Ry
     ewald contribution        =   -6207.90761922 Ry

     convergence has been achieved in  12 iterations

     Forces acting on atoms (cartesian axes, Ry/au):

     atom    1 type  1   force =    -0.00378804    0.00000000    0.00000000
     atom    2 type  1   force =     0.00006232    0.00000000    0.00000000
     atom    3 type  1   force =     0.00004095    0.00000000    0.00000000
     atom    4 type  1   force =     0.00015644    0.00000000    0.00000000
     atom    5 type  1   force =     0.00004095    0.00000000    0.00000000
     atom    6 type  1   force =     0.00015644    0.00000000    0.00000000
     atom    7 type  1   force =     0.00008845    0.00000000    0.00000000
     atom    8 type  1   force =     0.00010492    0.00000000    0.00000000
     atom    9 type  1   force =     0.00085530    0.00067414    0.00067414
     atom   10 type  1   force =    -0.00010713    0.00000473    0.00000473
     atom   11 type  1   force =    -0.00009482    0.00001962    0.00000636
     atom   12 type  1   force =    -0.00010896    0.00000299    0.00000379
     atom   13 type  1   force =    -0.00009482    0.00000636    0.00001962
     atom   14 type  1   force =    -0.00010896    0.00000379    0.00000299
     atom   15 type  1   force =    -0.00009726    0.00000874    0.00000874
     atom   16 type  1   force =    -0.00010876    0.00000493    0.00000493
     atom   17 type  1   force =     0.00015820    0.00005110    0.00001531
     atom   18 type  1   force =     0.00016097   -0.00006386    0.00001096
     atom   19 type  1   force =     0.00015820   -0.00005110   -0.00001531
     atom   20 type  1   force =     0.00016097    0.00006386   -0.00001096
     atom   21 type  1   force =     0.00011982   -0.00000923    0.00000315
     atom   22 type  1   force =     0.00012062   -0.00000020    0.00000866
     atom   23 type  1   force =     0.00011982    0.00000923   -0.00000315
     atom   24 type  1   force =     0.00012062    0.00000020   -0.00000866
     atom   25 type  1   force =    -0.00011077   -0.00000703   -0.00001293
     atom   26 type  1   force =    -0.00009435    0.00000725   -0.00001897
     atom   27 type  1   force =    -0.00010699    0.00002216   -0.00002216
     atom   28 type  1   force =     0.00084774    0.00066633   -0.00066633
     atom   29 type  1   force =    -0.00011007    0.00000128   -0.00000128
     atom   30 type  1   force =    -0.00010494   -0.00000204    0.00000204
     atom   31 type  1   force =    -0.00011077    0.00001293    0.00000703
     atom   32 type  1   force =    -0.00009435    0.00001897   -0.00000725
     atom   33 type  1   force =     0.00015820    0.00001531    0.00005110
     atom   34 type  1   force =     0.00016097    0.00001096   -0.00006386
     atom   35 type  1   force =     0.00011982    0.00000315   -0.00000923
     atom   36 type  1   force =     0.00012062    0.00000866   -0.00000020
     atom   37 type  1   force =     0.00015820   -0.00001531   -0.00005110
     atom   38 type  1   force =     0.00016097   -0.00001096    0.00006386
     atom   39 type  1   force =     0.00011982   -0.00000315    0.00000923
     atom   40 type  1   force =     0.00012062   -0.00000866    0.00000020
     atom   41 type  1   force =    -0.00011077   -0.00001293   -0.00000703
     atom   42 type  1   force =    -0.00009435   -0.00001897    0.00000725
     atom   43 type  1   force =    -0.00011007   -0.00000128    0.00000128
     atom   44 type  1   force =    -0.00010494    0.00000204   -0.00000204
     atom   45 type  1   force =    -0.00010699   -0.00002216    0.00002216
     atom   46 type  1   force =     0.00084774   -0.00066633    0.00066633
     atom   47 type  1   force =    -0.00011077    0.00000703    0.00001293
     atom   48 type  1   force =    -0.00009435   -0.00000725    0.00001897
     atom   49 type  1   force =    -0.00001061   -0.00002362   -0.00002362
     atom   50 type  1   force =     0.00010465   -0.00000635   -0.00000635
     atom   51 type  1   force =    -0.00000917   -0.00000941    0.00000941
     atom   52 type  1   force =     0.00011461    0.00000504   -0.00000504
     atom   53 type  1   force =    -0.00000917    0.00000941   -0.00000941
     atom   54 type  1   force =     0.00011461   -0.00000504    0.00000504
     atom   55 type  1   force =    -0.00001061    0.00002362    0.00002362
     atom   56 type  1   force =     0.00010465    0.00000635    0.00000635
     atom   57 type  1   force =    -0.00009726   -0.00000874   -0.00000874
     atom   58 type  1   force =    -0.00010876   -0.00000493   -0.00000493
     atom   59 type  1   force =    -0.00009482   -0.00000636   -0.00001962
     atom   60 type  1   force =    -0.00010896   -0.00000379   -0.00000299
     atom   61 type  1   force =    -0.00009482   -0.00001962   -0.00000636
     atom   62 type  1   force =    -0.00010896   -0.00000299   -0.00000379
     atom   63 type  1   force =     0.00085530   -0.00067414   -0.00067414
     atom   64 type  1   force =    -0.00010713   -0.00000473   -0.00000473

     Total force =     0.004651     Total SCF correction =     0.000393

     Computing stress (Cartesian axis) and pressure

          total   stress  (Ry/bohr**3)                   (kbar)     P=     -336.38
  -0.00228669   0.00000000   0.00000000         -336.38        0.00        0.00
   0.00000000  -0.00228668   0.00000096            0.00     -336.38        0.14
   0.00000000   0.00000096  -0.00228668            0.00        0.14     -336.38

     Writing output data file ./Ge_out/Ge_scf.save/

     General routines

     Parallel routines

   This run was terminated on:   0:10:59  15May2025

   JOB DONE.